 vasp.6.3.0 20Jan22 (build Mar 06 2023 08:06:32) gamma-only

 executed on             LinuxIFC date 2023.03.06  08:26:25

 INCAR:
   ENCUT = 500
   SIGMA = 0.0001
   EDIFF = 1E-6
   LHFCALC = .TRUE.
   AEXX = 1.0
   ALGO = C
   NCORE = 2

 POTCAR:    PAW_PBE C_GW 28Sep2005
 POTCAR:    PAW_PBE Mg_pv_GW 20Apr2010
 POTCAR:    PAW_PBE O_GW_new 19Mar2012
|           W    W    AA    RRRRR   N    N  II  N    N   GGGG   !!!           |
|           W    W   A  A   R    R  NN   N  II  NN   N  G    G  !!!           |
|           W    W  A    A  R    R  N N  N  II  N N  N  G       !!!           |
|           W WW W  AAAAAA  RRRRR   N  N N  II  N  N N  G  GGG   !            |
|           WW  WW  A    A  R   R   N   NN  II  N   NN  G    G                |
|           W    W  A    A  R    R  N    N  II  N    N   GGGG   !!!           |
|     For optimal performance we recommend to set                             |
|       NCORE = 2 up to number-of-cores-per-socket                            |
|     This setting can greatly improve the performance of VASP for DFT.       |
|     The default, NCORE=1 might be grossly inefficient on modern             |
|     multi-core architectures or massively parallel machines. Do your        |
|     Unfortunately you need to use the default for GW and RPA                |
|     calculations (for HF NCORE is supported but not extensively tested      |
|     yet).                                                                   |

   TITEL  = PAW_PBE C_GW 28Sep2005
   POMASS =   12.011; ZVAL   =    4.000    mass and valenz
   ENMAX  =  413.992; ENMIN  =  310.494 eV

   TITEL  = PAW_PBE Mg_pv_GW 20Apr2010
   POMASS =   24.305; ZVAL   =    8.000    mass and valenz
   ENMAX  =  403.929; ENMIN  =  302.947 eV

   TITEL  = PAW_PBE O_GW_new 19Mar2012
   POMASS =   16.000; ZVAL   =    6.000    mass and valenz
   ENMAX  =  434.431; ENMIN  =  325.824 eV

  PAW_PBE C_GW 28Sep2005                :
  PAW_PBE Mg_pv_GW 20Apr2010            :
  PAW_PBE O_GW_new 19Mar2012            :

 POSCAR:  C  O Mg  O
  positions in direct lattice
 exchange correlation table for  LEXCH =        8
   RHO(1)=    0.500       N(1)  =     2000
   RHO(2)=  100.500       N(2)  =     4000

 ion  position               nearest neighbor table
   1  0.500  0.500  0.694-  34 1.15
   2  0.000  0.750  0.253-  24 2.11  21 2.11  29 2.11  20 2.11  18 2.15
   3  0.250  0.000  0.253-  28 2.11  25 2.11  21 2.11  20 2.11  19 2.15
   4  0.000  0.000  0.350-  18 2.11  19 2.11  22 2.11  27 2.11  20 2.11
   5  0.250  0.750  0.350-  21 2.11  19 2.11  18 2.11  23 2.11  26 2.11
   6  0.000  0.250  0.253-  24 2.11  25 2.11  33 2.11  20 2.11  22 2.15
   7  0.250  0.500  0.253-  32 2.11  25 2.11  21 2.11  24 2.11  23 2.15
   8  0.000  0.500  0.350-  23 2.10  31 2.10  24 2.11  22 2.11  18 2.11
   9  0.250  0.250  0.350-  25 2.11  22 2.11  19 2.11  23 2.11  30 2.11
  10  0.500  0.750  0.253-  32 2.11  29 2.11  21 2.11  28 2.11  26 2.15
  11  0.750  0.000  0.253-  28 2.11  29 2.11  33 2.11  20 2.11  27 2.15
  12  0.500  0.000  0.350-  26 2.10  30 2.10  28 2.11  19 2.11  27 2.11
  13  0.750  0.750  0.350-  29 2.11  27 2.11  18 2.11  26 2.11  31 2.11
  14  0.500  0.250  0.253-  32 2.11  25 2.11  33 2.11  28 2.11  30 2.15
  15  0.750  0.500  0.253-  32 2.11  29 2.11  33 2.11  24 2.11  31 2.15
  16  0.500  0.500  0.352-  23 2.12  26 2.12  30 2.12  31 2.12  32 2.14
  17  0.750  0.250  0.350-  33 2.11  27 2.11  22 2.11  31 2.11  30 2.11
  18  0.000  0.750  0.352-   4 2.11   5 2.11  13 2.11   8 2.11   2 2.15
  19  0.250  0.000  0.352-   4 2.11   5 2.11   9 2.11  12 2.11   3 2.15
  20  0.000  0.000  0.253-   4 2.11   3 2.11   2 2.11   6 2.11  11 2.11
  21  0.250  0.750  0.253-   5 2.11   3 2.11   2 2.11   7 2.11  10 2.11
  22  0.000  0.250  0.352-   4 2.11   9 2.11  17 2.11   8 2.11   6 2.15
  23  0.249  0.500  0.352-   8 2.10   5 2.11   9 2.11  16 2.12   7 2.15
  24  0.000  0.500  0.253-   8 2.11   6 2.11   2 2.11   7 2.11  15 2.11
  25  0.250  0.250  0.253-   9 2.11   6 2.11   3 2.11   7 2.11  14 2.11
  26  0.500  0.751  0.352-  12 2.10   5 2.11  13 2.11  16 2.12  10 2.15
  27  0.750  0.000  0.352-   4 2.11  13 2.11  17 2.11  12 2.11  11 2.15
  28  0.500  0.000  0.253-  12 2.11  11 2.11   3 2.11  10 2.11  14 2.11
  29  0.750  0.750  0.253-  13 2.11  11 2.11   2 2.11  10 2.11  15 2.11
  30  0.500  0.249  0.352-  12 2.10   9 2.11  17 2.11  16 2.12  14 2.15
  31  0.751  0.500  0.352-   8 2.10  13 2.11  17 2.11  16 2.12  15 2.15
  32  0.500  0.500  0.253-   7 2.11  10 2.11  14 2.11  15 2.11  16 2.14
  33  0.750  0.250  0.253-  17 2.11  11 2.11   6 2.11  15 2.11  14 2.11
  34  0.500  0.500  0.747-   1 1.15

  LATTYP: Found a simple tetragonal cell.
 ALAT       =     8.4409846542
 C/A-ratio  =     2.5754268781

  Lattice vectors:

 A1 = (   8.4409846542,   0.0000000000,   0.0000000000)
 A2 = (   0.0000000000,   8.4409846542,   0.0000000000)
 A3 = (   0.0000000000,   0.0000000000,  21.7391387558)

Analysis of symmetry for initial positions (statically):
 Subroutine PRICEL returns:
 Original cell was already a primitive cell.

 Routine SETGRP: Setting up the symmetry group for a
 simple tetragonal supercell.

 Subroutine GETGRP returns: Found  8 space group operations
 (whereof  8 operations were pure point group operations)
 out of a pool of 16 trial point group operations.

The static configuration has the point symmetry C_4v.

Analysis of symmetry for dynamics (positions and initial velocities):
 Subroutine PRICEL returns:
 Original cell was already a primitive cell.

 Routine SETGRP: Setting up the symmetry group for a
 simple tetragonal supercell.

 Subroutine GETGRP returns: Found  8 space group operations
 (whereof  8 operations were pure point group operations)
 out of a pool of 16 trial point group operations.

The dynamic configuration has the point symmetry C_4v.

 Subroutine INISYM returns: Found  8 space group operations
 (whereof  8 operations are pure point group operations),
 and found     1 'primitive' translations

                                     Primitive cell

  volume of cell :    1548.9185

  direct lattice vectors                    reciprocal lattice vectors
     8.440984654  0.000000000  0.000000000     0.118469591  0.000000000  0.000000000
     0.000000000  8.440984654  0.000000000     0.000000000  0.118469591  0.000000000
     0.000000000  0.000000000 21.739138756     0.000000000  0.000000000  0.045999982

  length of vectors
     8.440984654  8.440984654 21.739138756     0.118469591  0.118469591  0.045999982

  position of ions in fractional coordinates (direct lattice)
     0.500000000  0.500000000  0.694246406
     0.000000000  0.749939268  0.253314454
     0.250060732  0.000000000  0.253314454
     0.000000000  0.000000000  0.350123019
     0.249858327  0.750141673  0.349950559
     0.000000000  0.250060732  0.253314454
     0.250378379  0.500000000  0.253448179
     0.000000000  0.500000000  0.349995433
     0.249858327  0.249858327  0.349950559
     0.500000000  0.749621621  0.253448179
     0.749939268  0.000000000  0.253314454
     0.500000000  0.000000000  0.349995433
     0.750141673  0.750141673  0.349950559
     0.500000000  0.250378379  0.253448179
     0.749621621  0.500000000  0.253448179
     0.500000000  0.500000000  0.351959508
     0.750141673  0.249858327  0.349950559
     0.000000000  0.750218533  0.352314997
     0.249781467  0.000000000  0.352314997
     0.000000000  0.000000000  0.253046241
     0.249945770  0.750054230  0.253094539
     0.000000000  0.249781467  0.352314997
     0.248822710  0.500000000  0.352220424
     0.000000000  0.500000000  0.252999903
     0.249945770  0.249945770  0.253094539
     0.500000000  0.751177290  0.352220424
     0.750218533  0.000000000  0.352314997
     0.500000000  0.000000000  0.252999903
     0.750054230  0.750054230  0.253094539
     0.500000000  0.248822710  0.352220424
     0.751177290  0.500000000  0.352220424
     0.500000000  0.500000000  0.253459789
     0.750054230  0.249945770  0.253094539
     0.500000000  0.500000000  0.747000097

  ion indices of the primitive-cell ions
   primitive index   ion index
                 1           1
                 2           2
                 3           3
                 4           4
                 5           5
                 6           6
                 7           7
                 8           8
                 9           9
                10          10
                11          11
                12          12
                13          13
                14          14
                15          15
                16          16
                17          17
                18          18
                19          19
                20          20
                21          21
                22          22
                23          23
                24          24
                25          25
                26          26
                27          27
                28          28
                29          29
                30          30
                31          31
                32          32
                33          33
                34          34

 KPOINTS: Automatically generated mesh

Automatic generation of k-mesh.
 Grid dimensions read from file:
 generate k-points for:    1    1    1

 Generating k-lattice:

  Cartesian coordinates                     Fractional coordinates (reciprocal lattice)
     0.118469591  0.000000000  0.000000000     1.000000000  0.000000000  0.000000000
     0.000000000  0.118469591  0.000000000     0.000000000  1.000000000  0.000000000
     0.000000000  0.000000000  0.045999982     0.000000000  0.000000000  1.000000000

  Length of vectors
     0.118469591  0.118469591  0.045999982

  Shift w.r.t. Gamma in fractional coordinates (k-lattice)
     0.000000000  0.000000000  0.000000000

 Subroutine IBZKPT returns following result:

 Found      1 irreducible k-points:

 Following reciprocal coordinates:
            Coordinates               Weight
  0.000000  0.000000  0.000000      1.000000

 Following cartesian coordinates:
            Coordinates               Weight
  0.000000  0.000000  0.000000      1.000000

 Subroutine IBZKPT_HF returns following result:

 Found      1 k-points in 1st BZ
 the following      1 k-points will be used (e.g. in the exchange kernel)
 Following reciprocal coordinates:   # in IRBZ
  0.000000  0.000000  0.000000    1.00000000   1 t-inv F

 SYSTEM =  unknown system
 POSCAR =   C  O Mg  O

 Startparameter for this run:
   NWRITE =      2    write-flag & timer
   PREC   = normal    normal or accurate (medium, high low for compatibility)
   ISTART =      1    job   : 0-new  1-cont  2-samecut
   ICHARG =      0    charge: 1-file 2-atom 10-const
   ISPIN  =      1    spin polarized calculation?
   LNONCOLLINEAR =      F non collinear calculations
   LSORBIT =      F    spin-orbit coupling
   INIWAV =      1    electr: 0-lowe 1-rand  2-diag
   LASPH  =      F    aspherical Exc in radial PAW
 Electronic Relaxation 1
   ENCUT  =  500.0 eV  36.75 Ry    6.06 a.u.  15.39 15.39 39.64*2*pi/ulx,y,z
   ENINI  =  500.0     initial cutoff
   ENAUG  = 1139.6 eV  augmentation charge cutoff
[...]
   0.50000000  0.00000000  0.34999543
   0.75014167  0.75014167  0.34995056
   0.50000000  0.25037838  0.25344818
   0.74962162  0.50000000  0.25344818
   0.50000000  0.50000000  0.35195951
   0.75014167  0.24985833  0.34995056
   0.00000000  0.75021853  0.35231500
   0.24978147  0.00000000  0.35231500
   0.00000000  0.00000000  0.25304624
   0.24994577  0.75005423  0.25309454
   0.00000000  0.24978147  0.35231500
   0.24882271  0.50000000  0.35222042
   0.00000000  0.50000000  0.25299990
   0.24994577  0.24994577  0.25309454
   0.50000000  0.75117729  0.35222042
   0.75021853  0.00000000  0.35231500
   0.50000000  0.00000000  0.25299990
   0.75005423  0.75005423  0.25309454
   0.50000000  0.24882271  0.35222042
   0.75117729  0.50000000  0.35222042
   0.50000000  0.50000000  0.25345979
   0.75005423  0.24994577  0.25309454
   0.50000000  0.50000000  0.74700010

 position of ions in cartesian coordinates  (Angst):
   4.22049233  4.22049233 15.09231894
   0.00000000  6.33022585  5.50683807
   2.11075880  0.00000000  5.50683807
   0.00000000  0.00000000  7.61137288
   2.10905031  6.33193435  7.60762375
   0.00000000  2.11075880  5.50683807
   2.11344006  4.22049233  5.50974512
   0.00000000  4.22049233  7.60859928
   2.10905031  2.10905031  7.60762375
   4.22049233  6.32754460  5.50974512
   6.33022585  0.00000000  5.50683807
   4.22049233  0.00000000  7.60859928
   6.33193435  6.33193435  7.60762375
   4.22049233  2.11344006  5.50974512
   6.32754460  4.22049233  5.50974512
   4.22049233  4.22049233  7.65129658
   6.33193435  2.10905031  7.60762375
   0.00000000  6.33258312  7.65902460
   2.10840153  0.00000000  7.65902460
   0.00000000  0.00000000  5.50100734
   2.10978841  6.33119624  5.50205730
   0.00000000  2.10840153  7.65902460
   2.10030867  4.22049233  7.65696867
   0.00000000  4.22049233  5.50000000
   2.10978841  2.10978841  5.50205730
   4.22049233  6.34067598  7.65696867
   6.33258312  0.00000000  7.65902460
   4.22049233  0.00000000  5.50000000
   6.33119624  6.33119624  5.50205730
   4.22049233  2.10030867  7.65696867
   6.34067598  4.22049233  7.65696867
   4.22049233  4.22049233  5.50999753
   6.33119624  2.10978841  5.50205730
   4.22049233  4.22049233 16.23913876

 use parallel FFT for orbitals z direction half grid
 k-point   1 :   0.0000 0.0000 0.0000  plane waves:   19730

 maximum and minimum number of plane-waves per node :      9867     9863

 maximum number of plane-waves:     19730
 maximum index in each direction:
   IXMAX=   15   IYMAX=   15   IZMAX=   39
   IXMIN=  -15   IYMIN=  -15   IZMIN=    0

 parallel 3D FFT for wavefunctions:
    minimum data exchange during FFTs selected (reduces bandwidth)
 parallel 3D FFT for charge:
    minimum data exchange during FFTs selected (reduces bandwidth)

 Radii for the augmentation spheres in the non-local exchange
 for species   1 augmentation radius   0.874 (default was   0.699)
       energy cutoff for augmentation   2000.0
 for species   2 augmentation radius   1.037 (default was   0.829)
       energy cutoff for augmentation   2000.0
 for species   3 augmentation radius   0.846 (default was   0.677)
       energy cutoff for augmentation   2000.0

 real space projection operators:
  max/ min on nodes  :       2081.92       2045.39

 Maximum index for augmentation-charges in exchange          421
  SETUP_FOCK is finished

 Broyden mixing: mesh for mixing (old mesh)
   NGX = 31   NGY = 31   NGZ = 79
  (NGX  = 96   NGY  = 96   NGZ  =240)
  gives a total of  75919 points

 charge density for first step will be calculated from the start-wavefunctions

 Maximum index for augmentation-charges          273 (set IRDMAX)

 initial charge from wavefunction

--------------------------------------- Iteration      1(   1)  ---------------------------------------

 eigenvalue-minimisations  :     0
 total energy-change (2. order) :-0.3649597E+03  (-0.4324201E+01)
 number of electron     234.0001040 magnetization
 augmentation part       75.8790628 magnetization

 Free energy of the ion-electron system (eV)
  alpha Z        PSCENC =       200.63487369
  Ewald energy   TEWEN  =     59439.95604768
  -Hartree energ DENC   =    -77986.05415591
  -exchange      EXHF   =      3303.50188179
  -V(xc)+E(xc)   XCENC  =         0.00000000
  PAW double counting   =     19938.92441578   -21388.97590680
  entropy T*S    EENTRO =         0.00000000
  eigenvalues    EBANDS =     -7791.99912310
  atomic energy  EATOM  =     23919.05224044
  free energy    TOTEN  =      -364.95972643 eV

  energy without entropy =     -364.95972643  energy(sigma->0) =     -364.95972643
  exchange ACFDT corr.  =         0.00000000  see jH, gK, PRB 81, 115126

[...]

--------------------------------------- Iteration      1(  28)  ---------------------------------------

 eigenvalue-minimisations  :     0
 total energy-change (2. order) :-0.9460964E-06  (-0.6035291E-06)
 number of electron     234.0001032 magnetization
 augmentation part       76.5081647 magnetization

 Free energy of the ion-electron system (eV)
  alpha Z        PSCENC =       200.63487369
  Ewald energy   TEWEN  =     59439.95604768
  -Hartree energ DENC   =    -78135.43256778
  -exchange      EXHF   =      3339.90262432
  -V(xc)+E(xc)   XCENC  =         0.00000000
  PAW double counting   =     20219.63038621   -21672.92160949
  entropy T*S    EENTRO =         0.00000000
  eigenvalues    EBANDS =     -7685.31456291
  atomic energy  EATOM  =     23919.05224044
  free energy    TOTEN  =      -374.49272071 eV

  energy without entropy =     -374.49272071  energy(sigma->0) =     -374.49272071
  exchange ACFDT corr.  =         0.00000000  see jH, gK, PRB 81, 115126

  average scaling for gradient   0.7805

 average (electrostatic) potential at core
  the test charge radii are     0.6991  0.8294  0.6768
  (the norm of the test charge is              1.0000)
       1 -43.6431       2 -16.6923       3 -16.6923       4 -16.3729       5 -16.4048
       6 -16.6924       7 -16.6910       8 -16.3700       9 -16.4048      10 -16.6911
      11 -16.6923      12 -16.3700      13 -16.4048      14 -16.6911      15 -16.6910
      16 -16.5756      17 -16.4048      18 -91.8631      19 -91.8631      20 -92.1425
      21 -92.1540      22 -91.8631      23 -91.9144      24 -92.1415      25 -92.1540
      26 -91.9145      27 -91.8631      28 -92.1415      29 -92.1540      30 -91.9145
      31 -91.9144      32 -92.1413      33 -92.1540      34 -98.5887

 E-fermi :  -8.1890     XC(G=0):   0.0000     alpha+bet : -2.7082

 Fermi energy:        -8.1890455741

 k-point     1 :       0.0000    0.0000    0.0000
  band No.  band energies     occupation
      1     -58.1172      2.00000
      2     -58.1137      2.00000
      3     -58.1137      2.00000
      4     -58.1134      2.00000
      5     -58.1133      2.00000
      6     -58.1129      2.00000
      7     -58.1128      2.00000
      8     -58.1094      2.00000
      9     -58.0974      2.00000
     10     -58.0969      2.00000
     11     -58.0883      2.00000
     12     -58.0883      2.00000
     13     -58.0726      2.00000
     14     -58.0725      2.00000
     15     -58.0724      2.00000
     16     -58.0724      2.00000
     17     -58.0722      2.00000
     18     -58.0716      2.00000
     19     -58.0715      2.00000
     20     -58.0715      2.00000
     21     -58.0561      2.00000
     22     -58.0561      2.00000
     23     -58.0469      2.00000
     24     -58.0461      2.00000
     25     -57.9964      2.00000
     26     -57.9519      2.00000
     27     -57.9519      2.00000
     28     -57.8304      2.00000
     29     -57.8296      2.00000
     30     -57.8296      2.00000
     31     -57.8290      2.00000
     32     -57.7979      2.00000
     33     -57.7951      2.00000
     34     -57.7950      2.00000
     35     -57.7948      2.00000
     36     -57.7948      2.00000
     37     -57.7893      2.00000
     38     -57.7893      2.00000
     39     -57.7857      2.00000
     40     -57.7854      2.00000
     41     -57.7846      2.00000
     42     -57.7842      2.00000
     43     -57.7512      2.00000
     44     -57.7512      2.00000
     45     -57.7488      2.00000
     46     -57.7488      2.00000
     47     -57.7403      2.00000
     48     -57.7403      2.00000
     49     -39.5033      2.00000
     50     -30.5371      2.00000
     51     -29.8315      2.00000
     52     -29.8315      2.00000
     53     -29.8186      2.00000
     54     -29.8108      2.00000
     55     -29.6161      2.00000
     56     -29.5933      2.00000
     57     -29.5905      2.00000
     58     -29.3229      2.00000
     59     -29.3229      2.00000
     60     -29.2555      2.00000
[...]
    370      19.4464      0.00000
    371      19.4591      0.00000
    372      19.4860      0.00000
    373      19.8333      0.00000
    374      19.9030      0.00000
    375      19.9143      0.00000
    376      20.0242      0.00000
    377      20.1088      0.00000
    378      20.1183      0.00000
    379      20.4052      0.00000
    380      20.4052      0.00000
    381      20.9511      0.00000
    382      20.9730      0.00000
    383      21.1502      0.00000
    384      21.1571      0.00000

 soft charge-density along one line, spin component           1
         0         1         2         3         4         5         6         7         8         9
 total charge-density along one line

------------------------ aborting loop because EDIFF is reached ----------------------------------------

 VOLUME and BASIS-vectors are now :
  energy-cutoff  :      500.00
  volume of cell :     1548.92
      direct lattice vectors                 reciprocal lattice vectors
     8.440984654  0.000000000  0.000000000     0.118469591  0.000000000  0.000000000
     0.000000000  8.440984654  0.000000000     0.000000000  0.118469591  0.000000000
     0.000000000  0.000000000 21.739138756     0.000000000  0.000000000  0.045999982

  length of vectors
     8.440984654  8.440984654 21.739138756     0.118469591  0.118469591  0.045999982

 FORCES acting on ions:
    Electron-Ion                     Ewald-Force                    Non-Local-Force
   0.186E-06 -.462E-05 -.463E+01   -.192E-16 0.827E-16 -.198E+02   0.709E-24 0.139E-22 0.273E+02
   -.510E-08 0.119E+00 0.927E+03   -.942E-13 -.127E+00 -.919E+03   -.195E-22 0.397E-02 -.249E+01
   -.119E+00 -.631E-07 0.927E+03   0.127E+00 -.284E-13 -.919E+03   -.397E-02 -.111E-22 -.249E+01
   -.313E-07 0.102E-05 -.883E+03   -.143E-13 0.959E-13 0.876E+03   0.986E-23 0.223E-23 0.223E+01
   -.879E+00 0.879E+00 -.879E+03   0.691E+00 -.691E+00 0.872E+03   0.462E-01 -.462E-01 0.225E+01
   -.116E-06 -.119E+00 0.927E+03   -.852E-13 0.127E+00 -.919E+03   -.290E-22 -.397E-02 -.249E+01
   -.146E+01 -.768E-06 0.925E+03   0.154E+01 -.533E-14 -.916E+03   -.297E-01 0.868E-23 -.250E+01
   0.309E-07 0.743E-06 -.880E+03   0.178E-13 -.106E-13 0.873E+03   0.491E-23 0.453E-22 0.222E+01
   -.879E+00 -.879E+00 -.879E+03   0.691E+00 0.691E+00 0.872E+03   0.462E-01 0.462E-01 0.225E+01
   -.512E-07 0.146E+01 0.925E+03   0.551E-13 -.154E+01 -.916E+03   -.496E-23 0.297E-01 -.250E+01
   0.119E+00 0.196E-07 0.927E+03   -.127E+00 -.285E-13 -.919E+03   0.397E-02 -.220E-23 -.249E+01
   -.326E-07 -.933E-06 -.880E+03   -.107E-13 -.391E-13 0.873E+03   0.310E-22 0.434E-23 0.222E+01
   0.879E+00 0.879E+00 -.879E+03   -.691E+00 -.691E+00 0.872E+03   -.462E-01 -.462E-01 0.225E+01
   -.193E-07 -.146E+01 0.925E+03   0.142E-12 0.154E+01 -.916E+03   0.240E-22 -.297E-01 -.250E+01
   0.146E+01 -.857E-06 0.925E+03   -.154E+01 0.284E-13 -.916E+03   0.297E-01 0.235E-23 -.250E+01
   -.476E-07 0.560E-06 -.905E+03   0.604E-13 -.110E-16 0.897E+03   -.106E-22 0.148E-22 0.245E+01
   0.879E+00 -.879E+00 -.879E+03   -.691E+00 0.691E+00 0.872E+03   -.462E-01 0.462E-01 0.225E+01
   0.551E-06 0.823E-01 -.690E+03   0.371E-13 -.980E-01 0.695E+03   0.704E-24 0.117E-02 -.282E+01
   -.823E-01 -.130E-05 -.690E+03   0.980E-01 0.261E-14 0.695E+03   -.117E-02 0.152E-23 -.282E+01
   -.101E-06 0.829E-06 0.704E+03   0.830E-11 -.833E-11 -.707E+03   -.230E-23 -.901E-23 0.126E+01
   -.612E+00 0.612E+00 0.704E+03   0.582E+00 -.582E+00 -.707E+03   0.243E-01 -.243E-01 0.134E+01
   -.450E-06 -.823E-01 -.690E+03   0.817E-12 0.980E-01 0.695E+03   -.172E-23 -.117E-02 -.282E+01
   -.291E+01 0.327E-05 -.687E+03   0.256E+01 -.879E-13 0.692E+03   0.316E+00 -.127E-22 -.251E+01
   -.128E-06 -.311E-05 0.705E+03   -.881E-12 -.710E-14 -.709E+03   0.217E-22 0.147E-22 0.132E+01
   -.612E+00 -.612E+00 0.704E+03   0.582E+00 0.582E+00 -.707E+03   0.243E-01 0.243E-01 0.134E+01
   -.410E-06 0.291E+01 -.687E+03   -.675E-13 -.256E+01 0.692E+03   -.625E-23 -.316E+00 -.251E+01
   0.823E-01 -.369E-06 -.690E+03   -.980E-01 -.285E-13 0.695E+03   0.117E-02 0.156E-23 -.282E+01
   0.624E-07 0.132E-05 0.705E+03   -.156E-12 -.142E-13 -.709E+03   -.227E-23 0.734E-23 0.132E+01
   0.612E+00 0.612E+00 0.704E+03   -.582E+00 -.582E+00 -.707E+03   -.243E-01 -.243E-01 0.134E+01
   0.130E-06 -.291E+01 -.687E+03   -.214E-13 0.256E+01 0.692E+03   0.113E-23 0.316E+00 -.251E+01
   0.291E+01 0.262E-05 -.687E+03   -.256E+01 -.426E-13 0.692E+03   -.316E+00 0.132E-24 -.251E+01
   -.282E-06 0.836E-05 0.694E+03   0.853E-13 0.355E-13 -.697E+03   0.410E-22 -.712E-22 0.105E+01
   0.612E+00 -.612E+00 0.704E+03   -.582E+00 0.582E+00 -.707E+03   -.243E-01 0.243E-01 0.134E+01
   0.124E-06 -.278E-05 -.400E+03   0.318E-15 0.564E-15 0.454E+03   0.185E-22 -.205E-22 -.321E+02
   -.951E-06 0.847E-05 0.554E+02   -.162E-12 0.110E-12 0.199E-11   0.590E-16 -.694E-17 -.176E+02

 POSITION                                       TOTAL-FORCE (eV/Angst)
      4.22049      4.22049     15.09232         0.000000     -0.000000      5.754280
      0.00000      6.33023      5.50684         0.000000      0.003586      0.747503
      2.11076      0.00000      5.50684        -0.003586     -0.000000      0.747503
      0.00000      0.00000      7.61137         0.000000     -0.000000     -0.207114
      2.10905      6.33193      7.60762        -0.031349      0.031349     -0.197956
      0.00000      2.11076      5.50684         0.000000     -0.003586      0.747503
      2.11344      4.22049      5.50975        -0.009225     -0.000000      0.749839
      0.00000      4.22049      7.60860         0.000000     -0.000000     -0.190705
      2.10905      2.10905      7.60762        -0.031349     -0.031349     -0.197956
      4.22049      6.32754      5.50975         0.000000      0.009225      0.749839
      6.33023      0.00000      5.50684         0.003586     -0.000000      0.747503
      4.22049      0.00000      7.60860         0.000000     -0.000000     -0.190705
      6.33193      6.33193      7.60762         0.031349      0.031349     -0.197956
      4.22049      2.11344      5.50975         0.000000     -0.009225      0.749839
      6.32754      4.22049      5.50975         0.009225     -0.000000      0.749839
      4.22049      4.22049      7.65130         0.000000     -0.000000     -0.537517
      6.33193      2.10905      7.60762         0.031349     -0.031349     -0.197956
      0.00000      6.33258      7.65902         0.000000     -0.010759     -0.168047
      2.10840      0.00000      7.65902         0.010759     -0.000000     -0.168047
      0.00000      0.00000      5.50101         0.000000     -0.000000     -0.401655
      2.10979      6.33120      5.50206         0.010556     -0.010556     -0.392338
      0.00000      2.10840      7.65902         0.000000      0.010759     -0.168047
      2.10031      4.22049      7.65697         0.161303     -0.000000     -0.069726
      0.00000      4.22049      5.50000         0.000000     -0.000000     -0.388984
      2.10979      2.10979      5.50206         0.010556      0.010556     -0.392338
      4.22049      6.34068      7.65697         0.000000     -0.161303     -0.069726
      6.33258      0.00000      7.65902        -0.010759     -0.000000     -0.168047
      4.22049      0.00000      5.50000         0.000000     -0.000000     -0.388984
      6.33120      6.33120      5.50206        -0.010556     -0.010556     -0.392338
      4.22049      2.10031      7.65697         0.000000      0.161303     -0.069726
      6.34068      4.22049      7.65697        -0.161303     -0.000000     -0.069726
      4.22049      4.22049      5.51000         0.000000     -0.000000     -0.366551
      6.33120      2.10979      5.50206        -0.010556      0.010556     -0.392338
      4.22049      4.22049     16.23914         0.000000     -0.000000     -5.759167
    total drift:                               -0.000001      0.000008      0.092984

  FREE ENERGIE OF THE ION-ELECTRON SYSTEM (eV)
  free  energy   TOTEN  =      -374.49272071 eV

  energy  without entropy=     -374.49272071  energy(sigma->0) =     -374.49272071

 writing wavefunctions