 vasp.6.3.0 20Jan22 (build Mar 06 2023 08:24:33) complex

 executed on             LinuxIFC date 2023.04.05  18:07:34

 INCAR:
   ENCUT = 500
   SIGMA = 0.0001
   EDIFF = 1E-4
   LHFCALC = .TRUE.
   AEXX = 1.0
   ALGO = C
   NCORE = 4

 POTCAR:    PAW_PBE C_GW 28Sep2005
 POTCAR:    PAW_PBE Mg_sv_GW 20Apr2010
 POTCAR:    PAW_PBE O_GW_new 19Mar2012
|           W    W    AA    RRRRR   N    N  II  N    N   GGGG   !!!           |
|           W    W   A  A   R    R  NN   N  II  NN   N  G    G  !!!           |
|           W    W  A    A  R    R  N N  N  II  N N  N  G       !!!           |
|           W WW W  AAAAAA  RRRRR   N  N N  II  N  N N  G  GGG   !            |
|           WW  WW  A    A  R   R   N   NN  II  N   NN  G    G                |
|           W    W  A    A  R    R  N    N  II  N    N   GGGG   !!!           |
|     For optimal performance we recommend to set                             |
|       NCORE = 2 up to number-of-cores-per-socket                            |
|     This setting can greatly improve the performance of VASP for DFT.       |
|     The default, NCORE=1 might be grossly inefficient on modern             |
|     multi-core architectures or massively parallel machines. Do your        |
|     Unfortunately you need to use the default for GW and RPA                |
|     calculations (for HF NCORE is supported but not extensively tested      |
|     yet).                                                                   |

   TITEL  = PAW_PBE C_GW 28Sep2005
   POMASS =   12.011; ZVAL   =    4.000    mass and valenz
   ENMAX  =  413.992; ENMIN  =  310.494 eV

   TITEL  = PAW_PBE Mg_sv_GW 20Apr2010
   POMASS =   24.305; ZVAL   =   10.000    mass and valenz
   ENMAX  =  429.893; ENMIN  =  322.420 eV

   TITEL  = PAW_PBE O_GW_new 19Mar2012
   POMASS =   16.000; ZVAL   =    6.000    mass and valenz
   ENMAX  =  434.431; ENMIN  =  325.824 eV

  PAW_PBE C_GW 28Sep2005                :
  PAW_PBE Mg_sv_GW 20Apr2010            :
  PAW_PBE O_GW_new 19Mar2012            :

 POSCAR:  C  O Mg  O
  positions in direct lattice
 exchange correlation table for  LEXCH =        8
   RHO(1)=    0.500       N(1)  =     2000
   RHO(2)=  100.500       N(2)  =     4000

 ion  position               nearest neighbor table
   1  0.500  0.500  0.648-  66 1.15
   2  0.000  0.750  0.308-  34 2.11  36 2.11  37 2.11  44 2.11  53 2.11
   3  0.250  0.000  0.308-  35 2.11  36 2.11  37 2.11  45 2.11  52 2.11
   4  0.000  0.000  0.389-  36 2.11  35 2.11  34 2.11  42 2.11  51 2.11  40 2.12
   5  0.250  0.750  0.389-  37 2.11  35 2.11  34 2.11  43 2.11  50 2.11  41 2.12
   6  0.000  0.750  0.471-  48 2.11  41 2.11  57 2.11  40 2.11  34 2.12  38 2.15
   7  0.250  0.000  0.471-  56 2.11  49 2.11  41 2.11  40 2.11  35 2.12  39 2.15
   8  0.000  0.000  0.552-  38 2.11  39 2.11  46 2.11  55 2.11  40 2.11
   9  0.250  0.750  0.552-  41 2.11  39 2.11  38 2.11  47 2.11  54 2.11
  10  0.000  0.250  0.308-  42 2.11  36 2.11  44 2.11  45 2.11  61 2.11
  11  0.250  0.500  0.308-  43 2.11  37 2.11  44 2.11  45 2.11  60 2.11
  12  0.000  0.500  0.389-  44 2.11  42 2.11  43 2.11  34 2.11  59 2.11  48 2.12
  13  0.250  0.250  0.389-  45 2.11  42 2.11  43 2.11  35 2.11  58 2.11  49 2.12
  14  0.000  0.250  0.471-  48 2.11  49 2.11  65 2.11  40 2.11  42 2.12  46 2.15
  15  0.250  0.500  0.471-  64 2.11  49 2.11  41 2.11  48 2.11  43 2.13  47 2.15
  16  0.000  0.500  0.552-  47 2.10  63 2.10  48 2.11  46 2.11  38 2.11
  17  0.250  0.250  0.552-  49 2.11  46 2.11  39 2.11  47 2.11  62 2.11
  18  0.500  0.750  0.308-  50 2.11  37 2.11  52 2.11  53 2.11  60 2.11
  19  0.750  0.000  0.308-  51 2.11  36 2.11  52 2.11  53 2.11  61 2.11
  20  0.500  0.000  0.389-  52 2.11  50 2.11  51 2.11  35 2.11  58 2.11  56 2.12
  21  0.750  0.750  0.389-  53 2.11  50 2.11  51 2.11  34 2.11  59 2.11  57 2.12
  22  0.500  0.750  0.471-  64 2.11  57 2.11  41 2.11  56 2.11  50 2.13  54 2.15
  23  0.750  0.000  0.471-  56 2.11  57 2.11  65 2.11  40 2.11  51 2.12  55 2.15
  24  0.500  0.000  0.552-  54 2.10  62 2.10  56 2.11  39 2.11  55 2.11
  25  0.750  0.750  0.552-  57 2.11  55 2.11  38 2.11  54 2.11  63 2.11
  26  0.500  0.250  0.308-  58 2.11  52 2.11  45 2.11  60 2.11  61 2.11
  27  0.750  0.500  0.308-  59 2.11  53 2.11  44 2.11  60 2.11  61 2.11
  28  0.500  0.500  0.389-  60 2.11  50 2.11  58 2.11  59 2.11  43 2.11  64 2.13
  29  0.750  0.250  0.389-  61 2.11  51 2.11  58 2.11  59 2.11  42 2.11  65 2.12
  30  0.500  0.250  0.471-  64 2.11  49 2.11  65 2.11  56 2.11  58 2.13  62 2.15
  31  0.750  0.500  0.471-  64 2.11  57 2.11  65 2.11  48 2.11  59 2.13  63 2.15
  32  0.500  0.500  0.554-  47 2.12  54 2.12  62 2.12  63 2.12  64 2.14
  33  0.750  0.250  0.552-  65 2.11  55 2.11  46 2.11  63 2.11  62 2.11
  34  0.000  0.750  0.389-   2 2.11   4 2.11   5 2.11  12 2.11  21 2.11   6 2.12
  35  0.250  0.000  0.389-   3 2.11   4 2.11   5 2.11  13 2.11  20 2.11   7 2.12
  36  0.000  0.000  0.308-   4 2.11   3 2.11   2 2.11  10 2.11  19 2.11
  37  0.250  0.750  0.308-   5 2.11   3 2.11   2 2.11  11 2.11  18 2.11
  38  0.000  0.750  0.554-   8 2.11   9 2.11  25 2.11  16 2.11   6 2.15
  39  0.250  0.000  0.554-   8 2.11   9 2.11  17 2.11  24 2.11   7 2.15
  40  0.000  0.000  0.471-   8 2.11   7 2.11   6 2.11  14 2.11  23 2.11   4 2.12
  41  0.250  0.750  0.471-   9 2.11   7 2.11   6 2.11  15 2.11  22 2.11   5 2.12
  42  0.000  0.250  0.389-  10 2.11   4 2.11  12 2.11  13 2.11  29 2.11  14 2.12
  43  0.250  0.500  0.389-  11 2.11   5 2.11  12 2.11  13 2.11  28 2.11  15 2.13
  44  0.000  0.500  0.308-  12 2.11  10 2.11  11 2.11   2 2.11  27 2.11
  45  0.250  0.250  0.308-  13 2.11  10 2.11  11 2.11   3 2.11  26 2.11
  46  0.000  0.250  0.554-   8 2.11  17 2.11  33 2.11  16 2.11  14 2.15
  47  0.249  0.500  0.554-  16 2.10   9 2.11  17 2.11  32 2.12  15 2.15
  48  0.000  0.500  0.471-  16 2.11  14 2.11   6 2.11  15 2.11  31 2.11  12 2.12
  49  0.250  0.250  0.471-  17 2.11  14 2.11   7 2.11  15 2.11  30 2.11  13 2.12
  50  0.500  0.750  0.389-  18 2.11   5 2.11  20 2.11  21 2.11  28 2.11  22 2.13
  51  0.750  0.000  0.389-  19 2.11   4 2.11  20 2.11  21 2.11  29 2.11  23 2.12
  52  0.500  0.000  0.308-  20 2.11  18 2.11  19 2.11   3 2.11  26 2.11
  53  0.750  0.750  0.308-  21 2.11  18 2.11  19 2.11   2 2.11  27 2.11
  54  0.500  0.751  0.554-  24 2.10   9 2.11  25 2.11  32 2.12  22 2.15
  55  0.750  0.000  0.554-   8 2.11  25 2.11  33 2.11  24 2.11  23 2.15
  56  0.500  0.000  0.471-  24 2.11  23 2.11   7 2.11  22 2.11  30 2.11  20 2.12
  57  0.750  0.750  0.471-  25 2.11  23 2.11   6 2.11  31 2.11  22 2.11  21 2.12
  58  0.500  0.250  0.389-  26 2.11  20 2.11  13 2.11  28 2.11  29 2.11  30 2.13
  59  0.750  0.500  0.389-  27 2.11  21 2.11  12 2.11  28 2.11  29 2.11  31 2.13
  60  0.500  0.500  0.308-  28 2.11  18 2.11  26 2.11  27 2.11  11 2.11
  61  0.750  0.250  0.308-  29 2.11  19 2.11  26 2.11  27 2.11  10 2.11
  62  0.500  0.249  0.554-  24 2.10  17 2.11  33 2.11  32 2.12  30 2.15
  63  0.751  0.500  0.554-  16 2.10  25 2.11  33 2.11  32 2.12  31 2.15
  64  0.500  0.500  0.471-  15 2.11  22 2.11  30 2.11  31 2.11  28 2.13  32 2.14
  65  0.750  0.250  0.471-  33 2.11  23 2.11  14 2.11  31 2.11  30 2.11  29 2.12
  66  0.500  0.500  0.692-   1 1.15

  LATTYP: Found a simple tetragonal cell.
 ALAT       =     8.4409846542
 C/A-ratio  =     3.0761793169

  Lattice vectors:

 A1 = (   8.4409846542,   0.0000000000,   0.0000000000)
 A2 = (   0.0000000000,   8.4409846542,   0.0000000000)
 A3 = (   0.0000000000,   0.0000000000,  25.9659824075)

Analysis of symmetry for initial positions (statically):
 Subroutine PRICEL returns:
 Original cell was already a primitive cell.

 Routine SETGRP: Setting up the symmetry group for a
 simple tetragonal supercell.

 Subroutine GETGRP returns: Found  8 space group operations
 (whereof  8 operations were pure point group operations)
 out of a pool of 16 trial point group operations.

The static configuration has the point symmetry C_4v.

Analysis of symmetry for dynamics (positions and initial velocities):
 Subroutine PRICEL returns:
 Original cell was already a primitive cell.

 Routine SETGRP: Setting up the symmetry group for a
 simple tetragonal supercell.

 Subroutine GETGRP returns: Found  8 space group operations
 (whereof  8 operations were pure point group operations)
 out of a pool of 16 trial point group operations.

The dynamic configuration has the point symmetry C_4v.

 Subroutine INISYM returns: Found  8 space group operations
 (whereof  8 operations are pure point group operations),
 and found     1 'primitive' translations

                                     Primitive cell

  volume of cell :    1850.0820

  direct lattice vectors                    reciprocal lattice vectors
     8.440984654  0.000000000  0.000000000     0.118469591  0.000000000  0.000000000
     0.000000000  8.440984654  0.000000000     0.000000000  0.118469591  0.000000000
     0.000000000  0.000000000 25.965982408     0.000000000  0.000000000  0.038511926

  length of vectors
     8.440984654  8.440984654 25.965982408     0.118469591  0.118469591  0.038511926

  position of ions in fractional coordinates (direct lattice)
     0.500000000  0.500000000  0.647738350
     0.000000000  0.750000000  0.308095410
     0.250000000  0.000000000  0.308095410
     0.000000000  0.000000000  0.389365055
     0.250000000  0.750000000  0.389365055
     0.000000000  0.749939268  0.471142648
     0.250060732  0.000000000  0.471142648
     0.000000000  0.000000000  0.552192338
     0.249858327  0.750141673  0.552047952
     0.000000000  0.250000000  0.308095410
     0.250000000  0.500000000  0.308095410
     0.000000000  0.500000000  0.389365055
     0.250000000  0.250000000  0.389365055
     0.000000000  0.250060732  0.471142648
     0.250378379  0.500000000  0.471254605
     0.000000000  0.500000000  0.552085521
     0.249858327  0.249858327  0.552047952
     0.500000000  0.750000000  0.308095410
     0.750000000  0.000000000  0.308095410
     0.500000000  0.000000000  0.389365055
     0.750000000  0.750000000  0.389365055
     0.500000000  0.749621621  0.471254605
     0.749939268  0.000000000  0.471142648
     0.500000000  0.000000000  0.552085521
     0.750141673  0.750141673  0.552047952
     0.500000000  0.250000000  0.308095410
     0.750000000  0.500000000  0.308095410
     0.500000000  0.500000000  0.389365055
     0.750000000  0.250000000  0.389365055
     0.500000000  0.250378379  0.471254605
     0.749621621  0.500000000  0.471254605
     0.500000000  0.500000000  0.553729877
     0.750141673  0.249858327  0.552047952
     0.000000000  0.750000000  0.389365055
     0.250000000  0.000000000  0.389365055
     0.000000000  0.000000000  0.308095410
     0.250000000  0.750000000  0.308095410
     0.000000000  0.750218533  0.554027498
     0.249781467  0.000000000  0.554027498
     0.000000000  0.000000000  0.470918096
     0.249945770  0.750054230  0.470958532
     0.000000000  0.250000000  0.389365055
     0.250000000  0.500000000  0.389365055
     0.000000000  0.500000000  0.308095410
     0.250000000  0.250000000  0.308095410
     0.000000000  0.249781467  0.554027498
     0.248822710  0.500000000  0.553948320
[...]
     55     -56.5183      2.00000
     56     -56.5183      2.00000
     57     -56.4513      2.00000
     58     -56.4511      2.00000
     59     -56.4508      2.00000
     60     -56.4506      2.00000
[...]
    370      14.9732      0.00000
    371      15.0857      0.00000
    372      15.2832      0.00000
    373      15.3678      0.00000
    374      15.3999      0.00000
    375      15.5897      0.00000
    376      15.7114      0.00000
    377      15.7787      0.00000
    378      15.8932      0.00000
    379      16.0612      0.00000
    380      16.1980      0.00000
    381      16.3165      0.00000
    382      16.5097      0.00000
    383      16.6650      0.00000
    384      16.9783      0.00000

[...]

 k-point     3 :       0.5000    0.5000    0.0000
  band No.  band energies     occupation
      1     -97.1076      2.00000
      2     -97.1075      2.00000
      3     -97.1074      2.00000
      4     -97.1073      2.00000
      5     -97.1046      2.00000
      6     -97.1044      2.00000
      7     -97.1044      2.00000
      8     -97.1043      2.00000
      9     -96.9537      2.00000
     10     -96.9536      2.00000
     11     -96.9532      2.00000
     12     -96.9530      2.00000
     13     -96.9247      2.00000
     14     -96.9036      2.00000
     15     -96.9036      2.00000
     16     -96.8903      2.00000
     17     -96.5441      2.00000
     18     -96.5427      2.00000
     19     -96.5427      2.00000
     20     -96.5410      2.00000
     21     -96.5330      2.00000
     22     -96.5312      2.00000
     23     -96.5312      2.00000
     24     -96.5299      2.00000
     25     -96.4548      2.00000
     26     -96.4473      2.00000
     27     -96.4468      2.00000
     28     -96.4468      2.00000
     29     -96.4463      2.00000
     30     -96.4437      2.00000
     31     -96.4383      2.00000
     32     -96.4383      2.00000
     33     -56.6036      2.00000
     34     -56.6035      2.00000
     35     -56.6035      2.00000
     36     -56.6033      2.00000
     37     -56.5999      2.00000
     38     -56.5997      2.00000
     39     -56.5997      2.00000
     40     -56.5996      2.00000
     41     -56.5647      2.00000
     42     -56.5646      2.00000
     43     -56.5646      2.00000
     44     -56.5645      2.00000
     45     -56.5479      2.00000
     46     -56.5479      2.00000
     47     -56.5478      2.00000
     48     -56.5478      2.00000
     49     -56.5393      2.00000
     50     -56.5392      2.00000
     51     -56.5391      2.00000
     52     -56.5391      2.00000
     53     -56.5225      2.00000
     54     -56.5225      2.00000
     55     -56.5224      2.00000
     56     -56.5224      2.00000
     57     -56.4512      2.00000
     58     -56.4511      2.00000
     59     -56.4508      2.00000
     60     -56.4507      2.00000
[...]
    370      14.8231      0.00000
    371      14.8691      0.00000
    372      14.8897      0.00000
    373      15.0021      0.00000
    374      15.1262      0.00000
    375      15.2520      0.00000
    376      15.3527      0.00000
    377      15.5655      0.00000
    378      15.7770      0.00000
    379      15.8422      0.00000
    380      16.1067      0.00000
    381      16.2203      0.00000
    382      16.3688      0.00000
    383      16.6376      0.00000
    384      16.8335      0.00000

 soft charge-density along one line, spin component           1
         0         1         2         3         4         5         6         7         8         9
 total charge-density along one line

------------------------ aborting loop because EDIFF is reached ----------------------------------------

 VOLUME and BASIS-vectors are now :
  energy-cutoff  :      500.00
  volume of cell :     1850.08
      direct lattice vectors                 reciprocal lattice vectors
     8.440984654  0.000000000  0.000000000     0.118469591  0.000000000  0.000000000
     0.000000000  8.440984654  0.000000000     0.000000000  0.118469591  0.000000000
     0.000000000  0.000000000 25.965982408     0.000000000  0.000000000  0.038511926

  length of vectors
     8.440984654  8.440984654 25.965982408     0.118469591  0.118469591  0.038511926

 FORCES acting on ions:
    Electron-Ion                     Ewald-Force                    Non-Local-Force
   0.109E-02 0.173E-02 -.123E+04   0.101E-13 0.410E-14 0.121E+04   0.310E-20 -.526E-20 0.270E+02
   0.407E-04 -.109E+00 0.332E+04   0.157E-12 0.108E+00 -.331E+04   0.724E-21 0.152E-03 -.229E+00
   0.109E+00 -.629E-04 0.332E+04   -.108E+00 -.267E-13 -.331E+04   -.152E-03 0.157E-22 -.229E+00
   0.468E-04 0.532E-04 0.115E+04   -.783E-13 0.710E-13 -.115E+04   -.738E-21 0.383E-20 0.319E-01
   0.516E+00 -.516E+00 0.115E+04   -.511E+00 0.511E+00 -.115E+04   -.779E-03 0.779E-03 0.317E-01
   -.380E-04 -.349E+01 -.103E+04   -.121E-12 0.346E+01 0.103E+04   0.111E-20 0.365E-03 -.409E-01
   0.349E+01 0.235E-04 -.103E+04   -.346E+01 0.674E-13 0.103E+04   -.365E-03 -.432E-21 -.409E-01
   0.322E-04 0.100E-03 -.320E+04   0.316E-10 -.316E-10 0.319E+04   0.277E-20 -.654E-21 0.941E-01
   0.225E+02 -.225E+02 -.317E+04   -.227E+02 0.227E+02 0.317E+04   0.102E-01 -.102E-01 0.122E+00
   0.958E-05 0.109E+00 0.332E+04   0.408E-13 -.108E+00 -.331E+04   0.276E-21 -.152E-03 -.229E+00
   0.102E+00 -.521E-04 0.332E+04   -.101E+00 0.977E-13 -.331E+04   0.796E-04 0.563E-22 -.227E+00
   -.615E-04 -.339E-04 0.115E+04   -.423E-13 0.355E-13 -.115E+04   0.773E-21 0.626E-21 0.277E-01
   0.516E+00 0.516E+00 0.115E+04   -.511E+00 -.511E+00 -.115E+04   -.779E-03 -.779E-03 0.317E-01
   0.111E-04 0.349E+01 -.103E+04   -.171E-12 -.346E+01 0.103E+04   -.635E-21 -.365E-03 -.409E-01
   0.482E+01 -.809E-04 -.102E+04   -.471E+01 0.320E-13 0.102E+04   0.623E-02 0.186E-20 -.438E-01
   -.178E-03 0.497E-04 -.318E+04   -.281E-13 0.462E-13 0.318E+04   -.132E-20 -.519E-20 0.110E+00
   0.225E+02 0.225E+02 -.317E+04   -.227E+02 -.227E+02 0.317E+04   0.102E-01 0.102E-01 0.122E+00
   -.540E-04 -.102E+00 0.332E+04   -.285E-13 0.101E+00 -.331E+04   0.326E-20 -.796E-04 -.227E+00
   -.109E+00 -.355E-04 0.332E+04   0.108E+00 0.125E-13 -.331E+04   0.152E-03 -.263E-20 -.229E+00
   0.473E-04 -.603E-04 0.115E+04   -.674E-13 0.391E-13 -.115E+04   -.662E-21 -.403E-21 0.277E-01
   -.516E+00 -.516E+00 0.115E+04   0.511E+00 0.511E+00 -.115E+04   0.779E-03 0.779E-03 0.317E-01
   -.850E-04 -.482E+01 -.102E+04   0.213E-13 0.471E+01 0.102E+04   -.331E-21 -.623E-02 -.438E-01
   -.349E+01 -.294E-04 -.103E+04   0.346E+01 -.293E-13 0.103E+04   0.365E-03 -.719E-21 -.409E-01
   -.730E-04 -.214E-04 -.318E+04   -.852E-13 -.274E-13 0.318E+04   -.246E-20 0.398E-21 0.110E+00
   -.225E+02 -.225E+02 -.317E+04   0.227E+02 0.227E+02 0.317E+04   -.102E-01 -.102E-01 0.122E+00
   -.118E-03 0.102E+00 0.332E+04   -.639E-13 -.101E+00 -.331E+04   -.165E-21 0.796E-04 -.227E+00
   -.102E+00 -.141E-04 0.332E+04   0.101E+00 0.121E-12 -.331E+04   -.796E-04 0.491E-20 -.227E+00
   -.396E-04 0.351E-04 0.115E+04   -.160E-12 0.110E-12 -.115E+04   -.478E-23 -.623E-23 0.337E-01
   -.516E+00 0.516E+00 0.115E+04   0.511E+00 -.511E+00 -.115E+04   0.779E-03 -.779E-03 0.317E-01
   0.471E-04 0.482E+01 -.102E+04   -.283E-13 -.471E+01 0.102E+04   0.962E-21 0.623E-02 -.438E-01
   -.482E+01 0.179E-04 -.102E+04   0.471E+01 -.568E-13 0.102E+04   -.623E-02 0.846E-21 -.438E-01
   -.816E-04 0.845E-05 -.310E+04   0.755E-16 0.963E-13 0.309E+04   -.159E-19 -.446E-20 0.105E+00
   -.225E+02 0.225E+02 -.317E+04   0.227E+02 -.227E+02 0.317E+04   -.102E-01 0.102E-01 0.122E+00
   -.106E-03 -.373E+00 0.687E+03   -.953E-14 0.362E+00 -.687E+03   -.264E-20 0.878E-02 0.218E-01
   0.373E+00 -.176E-03 0.687E+03   -.362E+00 -.137E-12 -.687E+03   -.878E-02 -.212E-20 0.218E-01
   -.514E-04 -.494E-04 0.201E+04   0.757E-14 -.688E-13 -.201E+04   0.281E-21 -.555E-21 0.978E+00
   0.624E-01 -.626E-01 0.201E+04   -.614E-01 0.614E-01 -.201E+04   -.765E-03 0.765E-03 0.979E+00
   -.757E-04 -.721E+01 -.196E+04   -.444E-13 0.715E+01 0.196E+04   0.247E-21 0.342E-01 -.264E+01
   0.721E+01 0.164E-03 -.196E+04   -.715E+01 -.773E-13 0.196E+04   -.342E-01 -.244E-20 -.264E+01
   -.774E-04 0.172E-03 -.613E+03   -.351E-13 0.284E-13 0.613E+03   -.180E-20 -.160E-20 0.349E+00
   0.247E+01 -.247E+01 -.608E+03   -.246E+01 0.246E+01 0.607E+03   -.529E-02 0.529E-02 0.384E+00
   0.827E-04 0.373E+00 0.687E+03   0.701E-14 -.362E+00 -.687E+03   -.409E-20 -.878E-02 0.218E-01
   0.349E+00 0.108E-03 0.687E+03   -.402E+00 -.631E-13 -.687E+03   0.390E-01 0.109E-21 0.189E-01
   -.186E-03 -.166E-03 0.201E+04   -.657E-13 -.733E-13 -.201E+04   0.289E-20 0.415E-20 0.977E+00
   0.625E-01 0.622E-01 0.201E+04   -.614E-01 -.614E-01 -.201E+04   -.765E-03 -.765E-03 0.979E+00
   -.139E-03 0.721E+01 -.196E+04   -.722E-13 -.715E+01 0.196E+04   -.306E-20 -.342E-01 -.264E+01
   0.232E+02 0.204E-03 -.193E+04   -.229E+02 0.995E-11 0.193E+04   -.187E+00 0.479E-20 -.260E+01
   0.841E-04 -.172E-03 -.608E+03   0.496E-13 -.497E-13 0.607E+03   -.148E-20 -.476E-21 0.358E+00
   0.247E+01 0.247E+01 -.608E+03   -.246E+01 -.246E+01 0.607E+03   -.529E-02 -.529E-02 0.384E+00
   -.113E-03 -.349E+00 0.687E+03   0.106E-11 0.402E+00 -.687E+03   -.144E-20 -.390E-01 0.189E-01
   -.373E+00 -.906E-04 0.687E+03   0.362E+00 -.121E-12 -.687E+03   0.878E-02 0.347E-21 0.218E-01
   0.437E-03 -.862E-04 0.201E+04   0.453E-13 -.915E-13 -.201E+04   0.511E-20 0.237E-20 0.977E+00
   -.625E-01 -.624E-01 0.201E+04   0.614E-01 0.614E-01 -.201E+04   0.765E-03 0.765E-03 0.979E+00
   -.998E-05 -.232E+02 -.193E+04   -.120E-10 0.229E+02 0.193E+04   -.210E-20 0.187E+00 -.260E+01
   -.721E+01 0.216E-04 -.196E+04   0.715E+01 0.710E-14 0.196E+04   0.342E-01 0.382E-20 -.264E+01
   0.479E-04 -.272E-03 -.608E+03   -.710E-13 0.730E-14 0.607E+03   0.766E-22 0.248E-20 0.358E+00
   -.247E+01 -.247E+01 -.608E+03   0.246E+01 0.246E+01 0.607E+03   0.529E-02 0.529E-02 0.384E+00
   -.151E-03 0.349E+00 0.687E+03   0.110E-11 -.402E+00 -.687E+03   0.141E-20 0.390E-01 0.189E-01
   -.349E+00 -.159E-03 0.687E+03   0.402E+00 -.107E-11 -.687E+03   -.390E-01 0.491E-20 0.189E-01
   0.375E-03 -.184E-03 0.201E+04   0.821E-13 -.613E-13 -.201E+04   -.198E-20 -.186E-21 0.978E+00
   -.620E-01 0.624E-01 0.201E+04   0.614E-01 -.614E-01 -.201E+04   0.765E-03 -.765E-03 0.979E+00
   0.359E-03 0.232E+02 -.193E+04   -.101E-10 -.229E+02 0.193E+04   -.961E-21 -.187E+00 -.260E+01
   -.232E+02 0.145E-03 -.193E+04   0.229E+02 0.992E-11 0.193E+04   0.187E+00 -.156E-21 -.260E+01
   0.127E-03 0.459E-03 -.610E+03   0.640E-13 0.142E-13 0.610E+03   0.339E-20 0.304E-20 0.289E-01
   -.247E+01 0.247E+01 -.608E+03   0.246E+01 -.246E+01 0.607E+03   0.529E-02 -.529E-02 0.384E+00
   0.178E-03 0.104E-02 -.207E+04   0.130E-13 -.367E-15 0.213E+04   0.194E-20 -.143E-19 -.331E+02
   -.539E-03 0.126E-02 0.583E+02   0.286E-12 -.419E-12 0.546E-11   -.295E-16 0.259E-17 -.175E+02

 POSITION                                       TOTAL-FORCE (eV/Angst)
      4.22049      4.22049     16.81916         0.000000     -0.000000      6.371131
      0.00000      6.33074      8.00000         0.000000     -0.000109      0.701518
      2.11025      0.00000      8.00000         0.000109     -0.000000      0.701518
      0.00000      0.00000     10.11025         0.000000     -0.000000      0.001955
      2.11025      6.33074     10.11025         0.001312     -0.001312      0.003066
      0.00000      6.33023     12.23368         0.000000     -0.001563     -0.004687
      2.11076      0.00000     12.23368         0.001563     -0.000000     -0.004687
      0.00000      0.00000     14.33822         0.000000     -0.000000     -0.255565
      2.10905      6.33193     14.33447        -0.027044      0.027044     -0.302138
      0.00000      2.11025      8.00000         0.000000      0.000109      0.701518
      2.11025      4.22049      8.00000         0.000236     -0.000000      0.702297
      0.00000      4.22049     10.11025         0.000000     -0.000000      0.013873
      2.11025      2.11025     10.11025         0.001312      0.001312      0.003066
      0.00000      2.11076     12.23368         0.000000      0.001563     -0.004687
      2.11344      4.22049     12.23659        -0.007952     -0.000000      0.012478
      0.00000      4.22049     14.33544         0.000000     -0.000000     -0.274268
      2.10905      2.10905     14.33447        -0.027044     -0.027044     -0.302138
      4.22049      6.33074      8.00000         0.000000     -0.000236      0.702297
      6.33074      0.00000      8.00000        -0.000109     -0.000000      0.701518
      4.22049      0.00000     10.11025         0.000000     -0.000000      0.013873
      6.33074      6.33074     10.11025        -0.001312     -0.001312      0.003066
      4.22049      6.32754     12.23659         0.000000      0.007952      0.012478
      6.33023      0.00000     12.23368        -0.001563     -0.000000     -0.004687
      4.22049      0.00000     14.33544         0.000000     -0.000000     -0.274268
      6.33193      6.33193     14.33447         0.027044      0.027044     -0.302138
      4.22049      2.11025      8.00000         0.000000      0.000236      0.702297
      6.33074      4.22049      8.00000        -0.000236     -0.000000      0.702297
      4.22049      4.22049     10.11025         0.000000     -0.000000      0.011371
      6.33074      2.11025     10.11025        -0.001312      0.001312      0.003066
      4.22049      2.11344     12.23659         0.000000     -0.007952      0.012478
      6.32754      4.22049     12.23659         0.007952     -0.000000      0.012478
      4.22049      4.22049     14.37814         0.000000     -0.000000     -0.420465
      6.33193      2.10905     14.33447         0.027044     -0.027044     -0.302138
      0.00000      6.33074     10.11025         0.000000      0.003327      0.060710
      2.11025      0.00000     10.11025        -0.003327     -0.000000      0.060710
      0.00000      0.00000      8.00000         0.000000     -0.000000     -0.452424
      2.11025      6.33074      8.00000        -0.000287      0.000287     -0.452324
      0.00000      6.33258     14.38587         0.000000      0.000709     -0.157143
      2.10840      0.00000     14.38587        -0.000709     -0.000000     -0.157143
      0.00000      0.00000     12.22785         0.000000     -0.000000      0.088922
      2.10979      6.33120     12.22890         0.001356     -0.001356      0.084594
      0.00000      2.11025     10.11025         0.000000     -0.003327      0.060710
      2.11025      4.22049     10.11025         0.013092     -0.000000      0.068727
      0.00000      4.22049      8.00000         0.000000     -0.000000     -0.452728
      2.11025      2.11025      8.00000        -0.000287     -0.000287     -0.452324
      0.00000      2.10840     14.38587         0.000000     -0.000709     -0.157143
      2.10031      4.22049     14.38381        -0.008152     -0.000000     -0.143310
      0.00000      4.22049     12.22684         0.000000     -0.000000      0.086435
      2.10979      2.10979     12.22890         0.001356      0.001356      0.084594
      4.22049      6.33074     10.11025         0.000000     -0.013092      0.068727
      6.33074      0.00000     10.11025         0.003327     -0.000000      0.060710
      4.22049      0.00000      8.00000         0.000000     -0.000000     -0.452728
      6.33074      6.33074      8.00000         0.000287      0.000287     -0.452324
      4.22049      6.34068     14.38381         0.000000      0.008152     -0.143310
      6.33258      0.00000     14.38587         0.000709     -0.000000     -0.157143
      4.22049      0.00000     12.22684         0.000000     -0.000000      0.086435
      6.33120      6.33120     12.22890        -0.001356     -0.001356      0.084594
      4.22049      2.11025     10.11025         0.000000      0.013092      0.068727
      6.33074      4.22049     10.11025        -0.013092     -0.000000      0.068727
      4.22049      4.22049      8.00000         0.000000     -0.000000     -0.452349
      6.33074      2.11025      8.00000         0.000287     -0.000287     -0.452324
      4.22049      2.10031     14.38381         0.000000     -0.008152     -0.143310
      6.34068      4.22049     14.38381         0.008152     -0.000000     -0.143310
      4.22049      4.22049     12.23684         0.000000     -0.000000      0.048850
      6.33120      2.10979     12.22890        -0.001356      0.001356      0.084594
      4.22049      4.22049     17.96598         0.000000     -0.000000     -5.983202
    total drift:                               -0.000539      0.001257      0.058730

  FREE ENERGIE OF THE ION-ELECTRON SYSTEM (eV)
  free  energy   TOTEN  =     -1216.46199592 eV

  energy  without entropy=    -1216.46199592  energy(sigma->0) =    -1216.46199592

 writing wavefunctions