 vasp.6.3.0 20Jan22 (build Mar 06 2023 08:24:33) complex

 executed on             LinuxIFC date 2023.04.05  16:38:08

 INCAR:
   ENCUT = 500
   SIGMA = 0.0001
   EDIFF = 1E-4
   LHFCALC = .TRUE.
   AEXX = 1.0
   ALGO = C
   NCORE = 4

 POTCAR:    PAW_PBE C_GW 28Sep2005
 POTCAR:    PAW_PBE Mg_pv_GW 20Apr2010
 POTCAR:    PAW_PBE O_GW_new 19Mar2012
|           W    W    AA    RRRRR   N    N  II  N    N   GGGG   !!!           |
|           W    W   A  A   R    R  NN   N  II  NN   N  G    G  !!!           |
|           W    W  A    A  R    R  N N  N  II  N N  N  G       !!!           |
|           W WW W  AAAAAA  RRRRR   N  N N  II  N  N N  G  GGG   !            |
|           WW  WW  A    A  R   R   N   NN  II  N   NN  G    G                |
|           W    W  A    A  R    R  N    N  II  N    N   GGGG   !!!           |
|     For optimal performance we recommend to set                             |
|       NCORE = 2 up to number-of-cores-per-socket                            |
|     This setting can greatly improve the performance of VASP for DFT.       |
|     The default, NCORE=1 might be grossly inefficient on modern             |
|     multi-core architectures or massively parallel machines. Do your        |
|     Unfortunately you need to use the default for GW and RPA                |
|     calculations (for HF NCORE is supported but not extensively tested      |
|     yet).                                                                   |

   TITEL  = PAW_PBE C_GW 28Sep2005
   POMASS =   12.011; ZVAL   =    4.000    mass and valenz
   ENMAX  =  413.992; ENMIN  =  310.494 eV

   TITEL  = PAW_PBE Mg_pv_GW 20Apr2010
   POMASS =   24.305; ZVAL   =    8.000    mass and valenz
   ENMAX  =  403.929; ENMIN  =  302.947 eV

   TITEL  = PAW_PBE O_GW_new 19Mar2012
   POMASS =   16.000; ZVAL   =    6.000    mass and valenz
   ENMAX  =  434.431; ENMIN  =  325.824 eV

  PAW_PBE C_GW 28Sep2005                :
  PAW_PBE Mg_pv_GW 20Apr2010            :
  PAW_PBE O_GW_new 19Mar2012            :

 POSCAR:  C  O Mg  O
  positions in direct lattice
 exchange correlation table for  LEXCH =        8
   RHO(1)=    0.500       N(1)  =     2000
   RHO(2)=  100.500       N(2)  =     4000

 ion  position               nearest neighbor table
   1  0.500  0.500  0.579-  34 1.15
   2  0.000  0.750  0.368-  24 2.11  21 2.11  29 2.11  20 2.11  18 2.15
   3  0.250  0.000  0.368-  28 2.11  25 2.11  21 2.11  20 2.11  19 2.15
   4  0.000  0.000  0.465-  18 2.11  19 2.11  22 2.11  27 2.11  20 2.11
   5  0.250  0.750  0.465-  21 2.11  19 2.11  18 2.11  23 2.11  26 2.11
   6  0.000  0.250  0.368-  24 2.11  25 2.11  33 2.11  20 2.11  22 2.15
   7  0.250  0.500  0.368-  32 2.11  25 2.11  21 2.11  24 2.11  23 2.15
   8  0.000  0.500  0.465-  23 2.10  31 2.10  24 2.11  22 2.11  18 2.11
   9  0.250  0.250  0.465-  25 2.11  22 2.11  19 2.11  23 2.11  30 2.11
  10  0.500  0.750  0.368-  32 2.11  29 2.11  21 2.11  28 2.11  26 2.15
  11  0.750  0.000  0.368-  28 2.11  29 2.11  33 2.11  20 2.11  27 2.15
  12  0.500  0.000  0.465-  26 2.10  30 2.10  28 2.11  19 2.11  27 2.11
  13  0.750  0.750  0.465-  29 2.11  27 2.11  18 2.11  26 2.11  31 2.11
  14  0.500  0.250  0.368-  32 2.11  25 2.11  33 2.11  28 2.11  30 2.15
  15  0.750  0.500  0.368-  32 2.11  29 2.11  33 2.11  24 2.11  31 2.15
  16  0.500  0.500  0.467-  23 2.12  26 2.12  30 2.12  31 2.12  32 2.14
  17  0.750  0.250  0.465-  33 2.11  27 2.11  22 2.11  31 2.11  30 2.11
  18  0.000  0.750  0.467-   4 2.11   5 2.11  13 2.11   8 2.11   2 2.15
  19  0.250  0.000  0.467-   4 2.11   5 2.11   9 2.11  12 2.11   3 2.15
  20  0.000  0.000  0.368-   4 2.11   3 2.11   2 2.11   6 2.11  11 2.11
  21  0.250  0.750  0.368-   5 2.11   3 2.11   2 2.11   7 2.11  10 2.11
  22  0.000  0.250  0.467-   4 2.11   9 2.11  17 2.11   8 2.11   6 2.15
  23  0.249  0.500  0.467-   8 2.10   5 2.11   9 2.11  16 2.12   7 2.15
  24  0.000  0.500  0.368-   8 2.11   6 2.11   2 2.11   7 2.11  15 2.11
  25  0.250  0.250  0.368-   9 2.11   6 2.11   3 2.11   7 2.11  14 2.11
  26  0.500  0.751  0.467-  12 2.10   5 2.11  13 2.11  16 2.12  10 2.15
  27  0.750  0.000  0.467-   4 2.11  13 2.11  17 2.11  12 2.11  11 2.15
  28  0.500  0.000  0.368-  12 2.11  11 2.11   3 2.11  10 2.11  14 2.11
  29  0.750  0.750  0.368-  13 2.11  11 2.11   2 2.11  10 2.11  15 2.11
  30  0.500  0.249  0.467-  12 2.10   9 2.11  17 2.11  16 2.12  14 2.15
  31  0.751  0.500  0.467-   8 2.10  13 2.11  17 2.11  16 2.12  15 2.15
  32  0.500  0.500  0.368-   7 2.11  10 2.11  14 2.11  15 2.11  16 2.14
  33  0.750  0.250  0.368-  17 2.11  11 2.11   6 2.11  15 2.11  14 2.11
  34  0.500  0.500  0.632-   1 1.15

  LATTYP: Found a simple tetragonal cell.
 ALAT       =     8.4409846542
 C/A-ratio  =     2.5754268781

  Lattice vectors:

 A1 = (   8.4409846542,   0.0000000000,   0.0000000000)
 A2 = (   0.0000000000,   8.4409846542,   0.0000000000)
 A3 = (   0.0000000000,   0.0000000000,  21.7391387558)

Analysis of symmetry for initial positions (statically):
 Subroutine PRICEL returns:
 Original cell was already a primitive cell.

 Routine SETGRP: Setting up the symmetry group for a
 simple tetragonal supercell.

 Subroutine GETGRP returns: Found  8 space group operations
 (whereof  8 operations were pure point group operations)
 out of a pool of 16 trial point group operations.

The static configuration has the point symmetry C_4v.

Analysis of symmetry for dynamics (positions and initial velocities):
 Subroutine PRICEL returns:
 Original cell was already a primitive cell.

 Routine SETGRP: Setting up the symmetry group for a
 simple tetragonal supercell.

 Subroutine GETGRP returns: Found  8 space group operations
 (whereof  8 operations were pure point group operations)
 out of a pool of 16 trial point group operations.

The dynamic configuration has the point symmetry C_4v.

 Subroutine INISYM returns: Found  8 space group operations
 (whereof  8 operations are pure point group operations),
 and found     1 'primitive' translations

                                     Primitive cell

  volume of cell :    1548.9185

  direct lattice vectors                    reciprocal lattice vectors
     8.440984654  0.000000000  0.000000000     0.118469591  0.000000000  0.000000000
     0.000000000  8.440984654  0.000000000     0.000000000  0.118469591  0.000000000
     0.000000000  0.000000000 21.739138756     0.000000000  0.000000000  0.045999982

  length of vectors
     8.440984654  8.440984654 21.739138756     0.118469591  0.118469591  0.045999982

  position of ions in fractional coordinates (direct lattice)
     0.500000000  0.500000000  0.579246450
     0.000000000  0.749939268  0.368314410
     0.250060732  0.000000000  0.368314410
     0.000000000  0.000000000  0.465122975
     0.249858327  0.750141673  0.464950515
     0.000000000  0.250060732  0.368314410
     0.250378379  0.500000000  0.368448135
     0.000000000  0.500000000  0.464995389
     0.249858327  0.249858327  0.464950515
     0.500000000  0.749621621  0.368448135
     0.749939268  0.000000000  0.368314410
     0.500000000  0.000000000  0.464995389
     0.750141673  0.750141673  0.464950515
     0.500000000  0.250378379  0.368448135
     0.749621621  0.500000000  0.368448135
     0.500000000  0.500000000  0.466959464
     0.750141673  0.249858327  0.464950515
     0.000000000  0.750218533  0.467314953
     0.249781467  0.000000000  0.467314953
     0.000000000  0.000000000  0.368046197
     0.249945770  0.750054230  0.368094495
     0.000000000  0.249781467  0.467314953
     0.248822710  0.500000000  0.467220380
     0.000000000  0.500000000  0.367999859
     0.249945770  0.249945770  0.368094495
     0.500000000  0.751177290  0.467220380
     0.750218533  0.000000000  0.467314953
     0.500000000  0.000000000  0.367999859
     0.750054230  0.750054230  0.368094495
     0.500000000  0.248822710  0.467220380
     0.751177290  0.500000000  0.467220380
     0.500000000  0.500000000  0.368459745
     0.750054230  0.249945770  0.368094495
     0.500000000  0.500000000  0.632000141

  ion indices of the primitive-cell ions
   primitive index   ion index
                 1           1
                 2           2
                 3           3
                 4           4
                 5           5
                 6           6
                 7           7
                 8           8
                 9           9
                10          10
                11          11
                12          12
                13          13
                14          14
                15          15
                16          16
                17          17
                18          18
                19          19
                20          20
                21          21
                22          22
                23          23
                24          24
                25          25
                26          26
                27          27
                28          28
                29          29
                30          30
                31          31
                32          32
                33          33
                34          34

 KPOINTS: Automatically generated mesh

Automatic generation of k-mesh.
 Grid dimensions read from file:
 generate k-points for:    2    2    1

 Generating k-lattice:

  Cartesian coordinates                     Fractional coordinates (reciprocal lattice)
     0.059234796  0.000000000  0.000000000     0.500000000  0.000000000  0.000000000
     0.000000000  0.059234796  0.000000000     0.000000000  0.500000000  0.000000000
     0.000000000  0.000000000  0.045999982     0.000000000  0.000000000  1.000000000

  Length of vectors
     0.059234796  0.059234796  0.045999982

  Shift w.r.t. Gamma in fractional coordinates (k-lattice)
     0.000000000  0.000000000  0.000000000

 Subroutine IBZKPT returns following result:

 Found      3 irreducible k-points:

 Following reciprocal coordinates:
            Coordinates               Weight
  0.000000  0.000000  0.000000      1.000000
  0.500000  0.000000  0.000000      2.000000
  0.500000  0.500000  0.000000      1.000000

 Following cartesian coordinates:
            Coordinates               Weight
  0.000000  0.000000  0.000000      1.000000
  0.059235  0.000000  0.000000      2.000000
  0.059235  0.059235  0.000000      1.000000

 Subroutine IBZKPT_HF returns following result:

 Found      4 k-points in 1st BZ
 the following      4 k-points will be used (e.g. in the exchange kernel)
 Following reciprocal coordinates:   # in IRBZ
  0.000000  0.000000  0.000000    0.25000000   1 t-inv F
  0.500000  0.000000  0.000000    0.25000000   2 t-inv F
  0.500000  0.500000  0.000000    0.25000000   3 t-inv F
  0.000000  0.500000  0.000000    0.25000000   2 t-inv F

 SYSTEM =  unknown system
 POSCAR =   C  O Mg  O

 Startparameter for this run:
   NWRITE =      2    write-flag & timer
   PREC   = normal    normal or accurate (medium, high low for compatibility)
   ISTART =      1    job   : 0-new  1-cont  2-samecut
   ICHARG =      0    charge: 1-file 2-atom 10-const
   ISPIN  =      1    spin polarized calculation?
   LNONCOLLINEAR =      F non collinear calculations
[...]
 parallel 3D FFT for charge:
    minimum data exchange during FFTs selected (reduces bandwidth)

 Radii for the augmentation spheres in the non-local exchange
 for species   1 augmentation radius   0.874 (default was   0.699)
       energy cutoff for augmentation   2000.0
 for species   2 augmentation radius   1.037 (default was   0.829)
       energy cutoff for augmentation   2000.0
 for species   3 augmentation radius   0.846 (default was   0.677)
       energy cutoff for augmentation   2000.0

 real space projection operators:
  max/ min on nodes  :       1058.27        991.64

 Maximum index for augmentation-charges in exchange          221
  SETUP_FOCK is finished

 Broyden mixing: mesh for mixing (old mesh)
   NGX = 31   NGY = 31   NGZ = 79
  (NGX  = 96   NGY  = 96   NGZ  =240)
  gives a total of  75919 points

 charge density for first step will be calculated from the start-wavefunctions

 Maximum index for augmentation-charges          274 (set IRDMAX)

 initial charge from wavefunction

--------------------------------------- Iteration      1(   1)  ---------------------------------------

 eigenvalue-minimisations  :     0
 total energy-change (2. order) :-0.2429599E+03  (-0.6909058E+02)
 number of electron     233.9999286 magnetization
 augmentation part       76.7745715 magnetization

 Free energy of the ion-electron system (eV)
  alpha Z        PSCENC =       200.63487369
  Ewald energy   TEWEN  =     64884.13705603
  -Hartree energ DENC   =    -83591.65336894
  -exchange      EXHF   =      3321.82845473
  -V(xc)+E(xc)   XCENC  =         0.00000000
  PAW double counting   =     21185.34149356   -22655.29586529
  entropy T*S    EENTRO =         0.00000000
  eigenvalues    EBANDS =     -7507.00482731
  atomic energy  EATOM  =     23919.05224044
  free energy    TOTEN  =      -242.95994309 eV

  energy without entropy =     -242.95994309  energy(sigma->0) =     -242.95994309
  exchange ACFDT corr.  =         0.00000000  see jH, gK, PRB 81, 115126

[...]

--------------------------------------- Iteration      1(  26)  ---------------------------------------

 eigenvalue-minimisations  :     0
 total energy-change (2. order) :-0.7050627E-04  (-0.4858500E-04)
 number of electron     233.9999280 magnetization
 augmentation part       76.5135079 magnetization

 Free energy of the ion-electron system (eV)
  alpha Z        PSCENC =       200.63487369
  Ewald energy   TEWEN  =     64884.13705603
  -Hartree energ DENC   =    -83574.64256447
  -exchange      EXHF   =      3339.42737335
  -V(xc)+E(xc)   XCENC  =         0.00000000
  PAW double counting   =     20228.23627036   -21681.54195061
  entropy T*S    EENTRO =         0.00000000
  eigenvalues    EBANDS =     -7688.51363267
  atomic energy  EATOM  =     23919.05224044
  free energy    TOTEN  =      -373.21693131 eV

  energy without entropy =     -373.21693131  energy(sigma->0) =     -373.21693131
  exchange ACFDT corr.  =         0.00000000  see jH, gK, PRB 81, 115126

  average scaling for gradient   0.7232

 average (electrostatic) potential at core
  the test charge radii are     0.6991  0.8294  0.6768
  (the norm of the test charge is              1.0000)
       1 -43.7557       2 -16.7239       3 -16.7237       4 -16.4178       5 -16.4468
       6 -16.7238       7 -16.7098       8 -16.3970       9 -16.4466      10 -16.7098
      11 -16.7239      12 -16.3970      13 -16.4468      14 -16.7098      15 -16.7099
      16 -16.3896      17 -16.4467      18 -91.8939      19 -91.8939      20 -92.1598
      21 -92.1628      22 -91.8939      23 -91.8843      24 -92.1463      25 -92.1629
      26 -91.8843      27 -91.8939      28 -92.1463      29 -92.1629      30 -91.8843
      31 -91.8843      32 -92.1382      33 -92.1629      34 -98.6529

 E-fermi :  -8.1494     XC(G=0):   0.0000     alpha+bet : -2.7082

 Fermi energy:        -8.1493941570

 k-point     1 :       0.0000    0.0000    0.0000
  band No.  band energies     occupation
      1     -58.1490      2.00000
      2     -58.1468      2.00000
      3     -58.1468      2.00000
      4     -58.1451      2.00000
      5     -58.1343      2.00000
      6     -58.1326      2.00000
      7     -58.1326      2.00000
      8     -58.1304      2.00000
      9     -58.1152      2.00000
     10     -58.1143      2.00000
     11     -58.1061      2.00000
     12     -58.1061      2.00000
     13     -58.0902      2.00000
     14     -58.0902      2.00000
     15     -58.0894      2.00000
     16     -58.0891      2.00000
     17     -58.0861      2.00000
     18     -58.0859      2.00000
     19     -58.0851      2.00000
     20     -58.0850      2.00000
     21     -58.0683      2.00000
     22     -58.0683      2.00000
     23     -58.0614      2.00000
     24     -58.0603      2.00000
     25     -57.8746      2.00000
     26     -57.8739      2.00000
     27     -57.8737      2.00000
     28     -57.8732      2.00000
     29     -57.8440      2.00000
     30     -57.8282      2.00000
     31     -57.8282      2.00000
     32     -57.8241      2.00000
     33     -57.8240      2.00000
     34     -57.8222      2.00000
     35     -57.8222      2.00000
     36     -57.8180      2.00000
     37     -57.8174      2.00000
     38     -57.8168      2.00000
     39     -57.8162      2.00000
     40     -57.8117      2.00000
     41     -57.7840      2.00000
     42     -57.7840      2.00000
     43     -57.7685      2.00000
     44     -57.7684      2.00000
     45     -57.7620      2.00000
     46     -57.7620      2.00000
     47     -57.7577      2.00000
     48     -57.7577      2.00000
     49     -39.5550      2.00000
     50     -30.5514      2.00000
     51     -29.8458      2.00000
     52     -29.8457      2.00000
     53     -29.8300      2.00000
     54     -29.8239      2.00000
     55     -29.6301      2.00000
     56     -29.6066      2.00000
     57     -29.6034      2.00000
     58     -29.3319      2.00000
     59     -29.3319      2.00000
     60     -29.2702      2.00000
[...]
    178       9.2602      0.00000
    179       9.3372      0.00000
    180       9.3583      0.00000
    181       9.3620      0.00000
    182       9.8023      0.00000
    183       9.8179      0.00000
    184       9.8838      0.00000
    185      10.0252      0.00000
    186      10.0810      0.00000
    187      10.2558      0.00000
    188      10.8482      0.00000
    189      11.0535      0.00000
    190      11.0919      0.00000
    191      11.1367      0.00000
    192      11.6199      0.00000

[...]

 k-point     3 :       0.5000    0.5000    0.0000
  band No.  band energies     occupation
      1     -58.1487      2.00000
      2     -58.1471      2.00000
      3     -58.1470      2.00000
      4     -58.1449      2.00000
      5     -58.1345      2.00000
      6     -58.1323      2.00000
      7     -58.1323      2.00000
      8     -58.1306      2.00000
      9     -58.1109      2.00000
     10     -58.1107      2.00000
     11     -58.1100      2.00000
     12     -58.1100      2.00000
     13     -58.0937      2.00000
     14     -58.0936      2.00000
     15     -58.0902      2.00000
     16     -58.0890      2.00000
     17     -58.0857      2.00000
     18     -58.0855      2.00000
     19     -58.0815      2.00000
     20     -58.0815      2.00000
     21     -58.0650      2.00000
     22     -58.0650      2.00000
     23     -58.0647      2.00000
     24     -58.0636      2.00000
     25     -57.8740      2.00000
     26     -57.8739      2.00000
     27     -57.8738      2.00000
     28     -57.8736      2.00000
     29     -57.8440      2.00000
     30     -57.8263      2.00000
     31     -57.8263      2.00000
     32     -57.8241      2.00000
     33     -57.8241      2.00000
     34     -57.8238      2.00000
     35     -57.8238      2.00000
     36     -57.8180      2.00000
     37     -57.8180      2.00000
     38     -57.8168      2.00000
     39     -57.8168      2.00000
     40     -57.8117      2.00000
     41     -57.7836      2.00000
     42     -57.7836      2.00000
     43     -57.7682      2.00000
     44     -57.7680      2.00000
     45     -57.7611      2.00000
     46     -57.7609      2.00000
     47     -57.7590      2.00000
     48     -57.7590      2.00000
     49     -39.5549      2.00000
     50     -30.1564      2.00000
     51     -30.1534      2.00000
     52     -30.1534      2.00000
     53     -30.1428      2.00000
     54     -29.4519      2.00000
     55     -29.4470      2.00000
     56     -29.4470      2.00000
     57     -29.4402      2.00000
     58     -29.4233      2.00000
     59     -29.4232      2.00000
     60     -29.4232      2.00000
[...]
    178       8.8912      0.00000
    179       9.2078      0.00000
    180       9.2098      0.00000
    181       9.5380      0.00000
    182       9.7355      0.00000
    183       9.9326      0.00000
    184       9.9509      0.00000
    185       9.9534      0.00000
    186      10.2230      0.00000
    187      10.2767      0.00000
    188      10.3236      0.00000
    189      11.1964      0.00000
    190      11.3111      0.00000
    191      11.8012      0.00000
    192      12.1112      0.00000

 soft charge-density along one line, spin component           1
         0         1         2         3         4         5         6         7         8         9
 total charge-density along one line

------------------------ aborting loop because EDIFF is reached ----------------------------------------

 VOLUME and BASIS-vectors are now :
  energy-cutoff  :      500.00
  volume of cell :     1548.92
      direct lattice vectors                 reciprocal lattice vectors
     8.440984654  0.000000000  0.000000000     0.118469591  0.000000000  0.000000000
     0.000000000  8.440984654  0.000000000     0.000000000  0.118469591  0.000000000
     0.000000000  0.000000000 21.739138756     0.000000000  0.000000000  0.045999982

  length of vectors
     8.440984654  8.440984654 21.739138756     0.118469591  0.118469591  0.045999982

 FORCES acting on ions:
    Electron-Ion                     Ewald-Force                    Non-Local-Force
   -.577E-04 0.815E-04 -.532E+03   -.633E-14 0.184E-14 0.508E+03   0.336E-21 -.224E-21 0.269E+02
   0.154E-03 -.286E+01 0.970E+03   -.918E-13 0.283E+01 -.961E+03   0.504E-20 0.944E-02 -.245E+01
   0.286E+01 -.106E-03 0.970E+03   -.283E+01 -.583E-13 -.961E+03   -.944E-02 0.278E-20 -.245E+01
   0.159E-04 -.730E-04 -.860E+03   0.403E-14 0.676E-13 0.853E+03   -.106E-20 -.962E-21 0.220E+01
   0.180E+02 -.180E+02 -.837E+03   -.182E+02 0.182E+02 0.830E+03   0.322E-01 -.322E-01 0.225E+01
   -.160E-03 0.286E+01 0.970E+03   -.568E-13 -.283E+01 -.961E+03   -.466E-20 -.944E-02 -.245E+01
   0.416E+01 0.161E-03 0.976E+03   -.407E+01 0.569E-13 -.967E+03   -.317E-01 0.149E-20 -.248E+01
   0.190E-04 0.518E-05 -.845E+03   0.525E-13 -.710E-13 0.838E+03   0.260E-21 0.120E-20 0.221E+01
   0.180E+02 0.180E+02 -.837E+03   -.182E+02 -.182E+02 0.830E+03   0.322E-01 0.322E-01 0.225E+01
   -.117E-03 -.416E+01 0.976E+03   0.515E-13 0.407E+01 -.967E+03   0.134E-20 0.317E-01 -.248E+01
   -.286E+01 0.105E-03 0.970E+03   0.283E+01 -.565E-13 -.961E+03   0.944E-02 0.283E-20 -.245E+01
   0.200E-04 -.380E-04 -.845E+03   0.658E-14 0.636E-14 0.838E+03   0.219E-21 -.130E-21 0.221E+01
   -.180E+02 -.180E+02 -.837E+03   0.182E+02 0.182E+02 0.830E+03   -.322E-01 -.322E-01 0.225E+01
   -.101E-03 0.416E+01 0.976E+03   0.114E-12 -.407E+01 -.967E+03   -.704E-20 -.317E-01 -.248E+01
   -.416E+01 -.335E-04 0.976E+03   0.407E+01 0.284E-13 -.967E+03   0.317E-01 0.616E-20 -.248E+01
   -.583E-04 0.399E-04 -.780E+03   0.566E-13 -.740E-14 0.774E+03   0.233E-20 -.138E-20 0.174E+01
   -.180E+02 0.180E+02 -.837E+03   0.182E+02 -.182E+02 0.830E+03   -.322E-01 0.322E-01 0.225E+01
   0.647E-04 -.733E+01 -.670E+03   -.258E-13 0.727E+01 0.675E+03   -.126E-20 0.337E-01 -.271E+01
   0.733E+01 -.799E-03 -.670E+03   -.727E+01 -.389E-14 0.675E+03   -.337E-01 0.111E-20 -.271E+01
   0.318E-03 -.528E-04 0.734E+03   -.141E-13 -.726E-14 -.737E+03   0.121E-20 0.232E-20 0.126E+01
   0.256E+01 -.256E+01 0.739E+03   -.255E+01 0.255E+01 -.742E+03   -.327E-02 0.327E-02 0.131E+01
   -.289E-03 0.733E+01 -.670E+03   -.789E-12 -.727E+01 0.675E+03   -.699E-20 -.337E-01 -.271E+01
   0.236E+02 0.817E-03 -.640E+03   -.233E+02 -.613E-13 0.644E+03   -.185E+00 -.282E-20 -.267E+01
   -.110E-03 -.244E-04 0.739E+03   0.833E-11 -.712E-14 -.742E+03   -.397E-20 -.889E-21 0.127E+01
   0.256E+01 0.256E+01 0.739E+03   -.255E+01 -.255E+01 -.742E+03   -.327E-02 -.327E-02 0.131E+01
   -.231E-03 -.236E+02 -.640E+03   -.371E-13 0.233E+02 0.644E+03   0.402E-20 0.185E+00 -.267E+01
   -.733E+01 0.398E-03 -.670E+03   0.727E+01 -.208E-13 0.675E+03   0.337E-01 0.463E-20 -.271E+01
   0.307E-04 0.430E-03 0.739E+03   -.981E-12 -.840E-11 -.742E+03   0.212E-21 -.582E-20 0.127E+01
   -.256E+01 -.256E+01 0.739E+03   0.255E+01 0.255E+01 -.742E+03   0.327E-02 0.327E-02 0.131E+01
   0.273E-03 0.236E+02 -.640E+03   -.107E-12 -.233E+02 0.644E+03   0.440E-20 -.185E+00 -.267E+01
   -.236E+02 -.654E-03 -.640E+03   0.233E+02 -.142E-13 0.644E+03   0.185E+00 0.479E-20 -.267E+01
   0.126E-04 -.147E-03 0.738E+03   0.852E-13 0.497E-13 -.740E+03   -.142E-21 -.254E-21 0.941E+00
   -.256E+01 0.256E+01 0.739E+03   0.255E+01 -.255E+01 -.742E+03   0.327E-02 -.327E-02 0.131E+01
   -.534E-03 0.512E-03 -.118E+04   -.571E-14 0.161E-15 0.124E+04   -.225E-20 0.200E-20 -.331E+02
   -.159E-02 0.127E-02 0.595E+02   -.319E-13 -.229E-13 0.682E-12   0.173E-17 -.130E-17 -.201E+02

 POSITION                                       TOTAL-FORCE (eV/Angst)
      4.22049      4.22049     12.59232         0.000000      0.000000      6.350848
      0.00000      6.33023      8.00684         0.000000     -0.003688      0.724951
      2.11076      0.00000      8.00684         0.003688      0.000000      0.724951
      0.00000      0.00000     10.11137         0.000000      0.000000     -0.203456
      2.10905      6.33193     10.10762        -0.027441      0.027441     -0.251909
      0.00000      2.11076      8.00684         0.000000      0.003688      0.724951
      2.11344      4.22049      8.00975        -0.006376     -0.000000      0.750343
      0.00000      4.22049     10.10860         0.000000      0.000000     -0.223141
      2.10905      2.10905     10.10762        -0.027441     -0.027441     -0.251909
      4.22049      6.32754      8.00975         0.000000      0.006376      0.750343
      6.33023      0.00000      8.00684        -0.003688      0.000000      0.724951
      4.22049      0.00000     10.10860         0.000000      0.000000     -0.223141
      6.33193      6.33193     10.10762         0.027441      0.027441     -0.251909
      4.22049      2.11344      8.00975         0.000000     -0.006376      0.750343
      6.32754      4.22049      8.00975         0.006376      0.000000      0.750343
      4.22049      4.22049     10.15130         0.000000     -0.000000     -0.385467
      6.33193      2.10905     10.10762         0.027441     -0.027441     -0.251909
      0.00000      6.33258     10.15902         0.000000      0.000420     -0.147614
      2.10840      0.00000     10.15902        -0.000420     -0.000000     -0.147614
      0.00000      0.00000      8.00101         0.000000     -0.000000     -0.384918
      2.10979      6.33120      8.00206         0.002023     -0.002023     -0.384145
      0.00000      2.10840     10.15902         0.000000     -0.000420     -0.147614
      2.10031      4.22049     10.15697        -0.005203     -0.000000     -0.136067
      0.00000      4.22049      8.00000         0.000000     -0.000000     -0.391230
      2.10979      2.10979      8.00206         0.002023      0.002023     -0.384145
      4.22049      6.34068     10.15697         0.000000      0.005203     -0.136067
      6.33258      0.00000     10.15902         0.000420     -0.000000     -0.147614
      4.22049      0.00000      8.00000         0.000000      0.000000     -0.391230
      6.33120      6.33120      8.00206        -0.002023     -0.002023     -0.384145
      4.22049      2.10031     10.15697         0.000000     -0.005203     -0.136067
      6.34068      4.22049     10.15697         0.005203      0.000000     -0.136067
      4.22049      4.22049      8.01000         0.000000      0.000000     -0.382255
      6.33120      2.10979      8.00206        -0.002023      0.002023     -0.384145
      4.22049      4.22049     13.73914         0.000000      0.000000     -5.988249
    total drift:                               -0.001593      0.001267      0.020617

  FREE ENERGIE OF THE ION-ELECTRON SYSTEM (eV)
  free  energy   TOTEN  =      -373.21693131 eV

  energy  without entropy=     -373.21693131  energy(sigma->0) =     -373.21693131

 writing wavefunctions