 vasp.6.3.0 20Jan22 (build Apr  1 2022 16:44:48) complex
 executed on        HPECrayEX_GCC date 2022.09.24  18:10:46

 INCAR:
   SYSTEM = MgO-rocksalt
   ISMEAR = 0
   SIGMA = 0.05
   EDIFF = 1E-6
   ALGO = ALL
   ISTART = 0
   IBRION = 2
   NSW = 1000
   ISYM = 2
   ISIF = 2
   EDIFFG = -0.01
   DIPOL = 0.5 0.5 0.5
   IDIPOL = 3
   LDIPOL = .TRUE.
   GGA = MK
   LUSE_VDW = .TRUE.
   PARAM1 = 0.1234
   PARAM2 = 0.711357
   ZAB_VDW = -1.8867
   AGGAC = 0.0
   ENCUT = 600
   PREC = Normal
   LASPH = .TRUE.
   LREAL = .FALSE.
   ISPIN = 1
   NELM = 200
   NELMIN = 8
   NCORE = 4
   KPAR = 2
   LWAVE = .FALSE.
   LCHARG = .FALSE.

 POTCAR:    PAW_PBE Mg_pv 13Apr2007
 POTCAR:    PAW_PBE O 08Apr2002
|               ----> ADVICE to this user running VASP <----                  |
|     You have switched on vdW-DFT.                                           |
|     This routine was written and supplied by Jiri Klimes. We recommend      |
|     that you carefully read and cite the following publications:            |
|       J. Klimes, D.R. Bowler, A. Michelides                                 |
|          J. Phys.: Cond Matt. 22 022201 (2010)                              |
|       J. Klimes, D.R. Bowler, A. Michelides                                 |
|          Phys. Rev. B. 83, 195131 (2011)                                    |
|     and references therein.                                                 |

   TITEL  = PAW_PBE Mg_pv 13Apr2007
   POMASS =   24.305; ZVAL   =    8.000    mass and valenz
   ENMAX  =  403.929; ENMIN  =  302.947 eV

   TITEL  = PAW_PBE O 08Apr2002
   POMASS =   16.000; ZVAL   =    6.000    mass and valenz
   ENMAX  =  400.000; ENMIN  =  300.000 eV

  PAW_PBE Mg_pv 13Apr2007               :
  PAW_PBE O 08Apr2002                   :

 POSCAR: Mg  O
  positions in direct lattice
 exchange correlation table for  LEXCH =       43
   RHO(1)=    0.500       N(1)  =     2000
   RHO(2)=  100.500       N(2)  =     4000

 ion  position               nearest neighbor table
   1  0.250  0.000  0.352-  33 2.11  35 2.11  36 2.11  43 2.11  52 2.11
   2  0.500  0.250  0.352-  34 2.11  35 2.11  36 2.11  44 2.11  51 2.11
   3  0.250  0.250  0.451-  35 2.11  39 2.11  33 2.11  34 2.11  41 2.11  50 2.11
   4  0.500  0.000  0.451-  36 2.11  40 2.11  33 2.11  34 2.11  42 2.11  49 2.11
   5  0.250  0.000  0.549-  33 2.11  37 2.11  39 2.11  40 2.11  47 2.11  56 2.11
   6  0.500  0.250  0.549-  34 2.11  38 2.11  39 2.11  40 2.11  48 2.11  55 2.11
   7  0.250  0.250  0.648-  39 2.11  38 2.11  37 2.11  45 2.11  54 2.11
   8  0.500  0.000  0.648-  40 2.11  38 2.11  37 2.11  46 2.11  53 2.11
   9  0.250  0.500  0.352-  41 2.11  35 2.11  43 2.11  44 2.11  60 2.11
  10  0.500  0.750  0.352-  42 2.11  36 2.11  43 2.11  44 2.11  59 2.11
  11  0.250  0.750  0.451-  43 2.11  47 2.11  42 2.11  33 2.11  41 2.11  58 2.11
  12  0.500  0.500  0.451-  44 2.11  48 2.11  42 2.11  34 2.11  41 2.11  57 2.11
  13  0.250  0.500  0.549-  41 2.11  45 2.11  39 2.11  47 2.11  48 2.11  64 2.11
  14  0.500  0.750  0.549-  42 2.11  46 2.11  40 2.11  47 2.11  48 2.11  63 2.11
  15  0.250  0.750  0.648-  47 2.11  45 2.11  46 2.11  37 2.11  62 2.11
  16  0.500  0.500  0.648-  48 2.11  45 2.11  46 2.11  38 2.11  61 2.11
  17  0.750  0.000  0.352-  49 2.11  36 2.11  51 2.11  52 2.11  59 2.11
  18  0.000  0.250  0.352-  50 2.11  35 2.11  51 2.11  52 2.11  60 2.11
  19  0.750  0.250  0.451-  51 2.11  55 2.11  50 2.11  34 2.11  49 2.11  57 2.11
  20  0.000  0.000  0.451-  52 2.11  56 2.11  50 2.11  33 2.11  49 2.11  58 2.11
  21  0.750  0.000  0.549-  49 2.11  53 2.11  40 2.11  55 2.11  56 2.11  63 2.11
  22  0.000  0.250  0.549-  50 2.11  54 2.11  39 2.11  55 2.11  56 2.11  64 2.11
  23  0.750  0.250  0.648-  55 2.11  53 2.11  54 2.11  38 2.11  61 2.11
  24  0.000  0.000  0.648-  56 2.11  53 2.11  54 2.11  37 2.11  62 2.11
  25  0.750  0.500  0.352-  57 2.11  51 2.11  44 2.11  59 2.11  60 2.11
  26  0.000  0.750  0.352-  58 2.11  52 2.11  43 2.11  59 2.11  60 2.11
  27  0.750  0.750  0.451-  59 2.11  63 2.11  57 2.11  58 2.11  42 2.11  49 2.11
  28  0.000  0.500  0.451-  60 2.11  64 2.11  57 2.11  58 2.11  41 2.11  50 2.11
  29  0.750  0.500  0.549-  57 2.11  61 2.11  48 2.11  55 2.11  63 2.11  64 2.11
  30  0.000  0.750  0.549-  58 2.11  62 2.11  47 2.11  56 2.11  63 2.11  64 2.11
  31  0.750  0.750  0.648-  63 2.11  53 2.11  61 2.11  62 2.11  46 2.11
  32  0.000  0.500  0.648-  64 2.11  54 2.11  61 2.11  62 2.11  45 2.11
  33  0.250  0.000  0.451-   1 2.11   5 2.11   4 2.11   3 2.11  11 2.11  20 2.11
  34  0.500  0.250  0.451-   2 2.11   6 2.11   4 2.11   3 2.11  12 2.11  19 2.11
  35  0.250  0.250  0.352-   3 2.11   2 2.11   1 2.11   9 2.11  18 2.11
  36  0.500  0.000  0.352-   4 2.11   2 2.11   1 2.11  10 2.11  17 2.11
  37  0.250  0.000  0.648-   5 2.11   7 2.11   8 2.11  15 2.11  24 2.11
  38  0.500  0.250  0.648-   6 2.11   7 2.11   8 2.11  16 2.11  23 2.11
  39  0.250  0.250  0.549-   3 2.11   7 2.11   6 2.11   5 2.11  13 2.11  22 2.11
  40  0.500  0.000  0.549-   4 2.11   8 2.11   6 2.11   5 2.11  14 2.11  21 2.11
  41  0.250  0.500  0.451-   9 2.11  13 2.11  11 2.11  12 2.11   3 2.11  28 2.11
  42  0.500  0.750  0.451-  10 2.11  14 2.11  11 2.11  12 2.11   4 2.11  27 2.11
  43  0.250  0.750  0.352-  11 2.11   9 2.11  10 2.11   1 2.11  26 2.11
  44  0.500  0.500  0.352-  12 2.11   9 2.11  10 2.11   2 2.11  25 2.11
  45  0.250  0.500  0.648-  13 2.11   7 2.11  15 2.11  16 2.11  32 2.11
  46  0.500  0.750  0.648-  14 2.11   8 2.11  15 2.11  16 2.11  31 2.11
  47  0.250  0.750  0.549-  11 2.11  15 2.11  13 2.11  14 2.11   5 2.11  30 2.11
  48  0.500  0.500  0.549-  12 2.11  16 2.11  13 2.11  14 2.11   6 2.11  29 2.11
  49  0.750  0.000  0.451-  17 2.11  21 2.11  19 2.11  20 2.11   4 2.11  27 2.11
  50  0.000  0.250  0.451-  18 2.11  22 2.11  19 2.11  20 2.11   3 2.11  28 2.11
  51  0.750  0.250  0.352-  19 2.11  17 2.11  18 2.11   2 2.11  25 2.11
  52  0.000  0.000  0.352-  20 2.11  17 2.11  18 2.11   1 2.11  26 2.11
  53  0.750  0.000  0.648-  21 2.11   8 2.11  23 2.11  24 2.11  31 2.11
  54  0.000  0.250  0.648-  22 2.11   7 2.11  23 2.11  24 2.11  32 2.11
  55  0.750  0.250  0.549-  19 2.11  23 2.11  21 2.11  22 2.11   6 2.11  29 2.11
  56  0.000  0.000  0.549-  20 2.11  24 2.11  21 2.11  22 2.11   5 2.11  30 2.11
  57  0.750  0.500  0.451-  25 2.11  29 2.11  12 2.11  27 2.11  28 2.11  19 2.11
  58  0.000  0.750  0.451-  26 2.11  30 2.11  11 2.11  27 2.11  28 2.11  20 2.11
  59  0.750  0.750  0.352-  27 2.11  17 2.11  25 2.11  26 2.11  10 2.11
  60  0.000  0.500  0.352-  28 2.11  18 2.11  25 2.11  26 2.11   9 2.11
  61  0.750  0.500  0.648-  29 2.11  23 2.11  16 2.11  31 2.11  32 2.11
  62  0.000  0.750  0.648-  30 2.11  24 2.11  15 2.11  31 2.11  32 2.11
  63  0.750  0.750  0.549-  27 2.11  31 2.11  14 2.11  29 2.11  30 2.11  21 2.11
  64  0.000  0.500  0.549-  28 2.11  32 2.11  13 2.11  29 2.11  30 2.11  22 2.11

  LATTYP: Found a simple tetragonal cell.
 ALAT       =     8.4405822621
 C/A-ratio  =     2.5271285836

  Lattice vectors:

 A1 = (   8.4405822621,   0.0000000000,   0.0000000000)
 A2 = (   0.0000000000,   8.4405822621,   0.0000000000)
 A3 = (   0.0000000000,   0.0000000000,  21.3304366966)

Analysis of symmetry for initial positions (statically):
 Subroutine PRICEL returns following result:

[...]

   8 primitive cells build up your supercell.

 Routine SETGRP: Setting up the symmetry group for a
 simple tetragonal supercell.

 Subroutine GETGRP returns: Found 16 space group operations
 (whereof  8 operations were pure point group operations)
 out of a pool of 16 trial point group operations.

The static configuration has the point symmetry C_4v.
 The point group associated with its full space group is D_4h.

Analysis of symmetry for dynamics (positions and initial velocities):
 Subroutine PRICEL returns following result:

[...]

The dynamic configuration has the point symmetry C_4v.
 The point group associated with its full space group is D_4h.

Analysis of constrained symmetry for selective dynamics:
 Subroutine PRICEL returns following result:

  LATTYP: Found a simple tetragonal cell.
 ALAT       =     2.9841964773
 C/A-ratio  =     7.1477990335

  Lattice vectors:

 A1 = (   2.1101455655,  -2.1101455655,   0.0000000000)
 A2 = (   2.1101455655,   2.1101455655,   0.0000000000)
 A3 = (   0.0000000000,   0.0000000000,  21.3304366966)

   8 primitive cells build up your supercell.

 Routine SETGRP: Setting up the symmetry group for a
 simple tetragonal supercell.

 Subroutine GETGRP returns: Found  8 space group operations
 (whereof  8 operations were pure point group operations)
 out of a pool of 16 trial point group operations.

The constrained configuration has the point symmetry C_4v.

 Subroutine INISYM returns: Found  8 space group operations
 (whereof  8 operations are pure point group operations),
 and found     8 'primitive' translations

                                     Primitive cell

  volume of cell :     189.9567

  direct lattice vectors                    reciprocal lattice vectors
     2.110145566 -2.110145566  0.000000000     0.236950478 -0.236950478  0.000000000
     2.110145566  2.110145566  0.000000000     0.236950478  0.236950478 -0.000000000
     0.000000000  0.000000000 21.330436697    -0.000000000  0.000000000  0.046881366

  length of vectors
     2.984196477  2.984196477 21.330436697     0.335098579  0.335098579  0.046881366

  position of ions in fractional coordinates (direct lattice)
     0.500000000  0.500000000  0.351610242
     0.000000000  0.000000000  0.450536747
     0.500000000  0.500000000  0.549463253
     0.000000000  0.000000000  0.648389758
     0.500000000  0.500000000  0.450536747
     0.000000000  0.000000000  0.351610242
     0.500000000  0.500000000  0.648389758
     0.000000000  0.000000000  0.549463253

  ion indices of the primitive-cell ions
   primitive index   ion index
                 1           1
                 2           3
                 3           5
                 4           7
                 5          33
                 6          35
                 7          37
                 8          39

 KPOINTS: pymatgen v2020.8.13 with grid density =

Automatic generation of k-mesh.
 Grid dimensions read from file:
 generate k-points for:    2    2    1

 Generating k-lattice:

  Cartesian coordinates                     Fractional coordinates (reciprocal lattice)
     0.059237619  0.000000000  0.000000000     0.500000000  0.000000000  0.000000000
     0.000000000  0.059237619  0.000000000     0.000000000  0.500000000  0.000000000
     0.000000000  0.000000000  0.046881366     0.000000000  0.000000000  1.000000000

  Length of vectors
     0.059237619  0.059237619  0.046881366

  Shift w.r.t. Gamma in fractional coordinates (k-lattice)
     0.000000000  0.000000000  0.000000000

 Subroutine IBZKPT returns following result:

 Found      3 irreducible k-points:

 Following reciprocal coordinates:
            Coordinates               Weight
  0.000000  0.000000  0.000000      1.000000
  0.500000  0.000000  0.000000      2.000000
  0.500000  0.500000  0.000000      1.000000

 Following cartesian coordinates:
[...]
     15     -41.7261      2.00000
     16     -41.7261      2.00000
     17     -41.7191      2.00000
     18     -41.7191      2.00000
     19     -41.7191      2.00000
     20     -41.7191      2.00000
     21     -41.7016      2.00000
     22     -41.7016      2.00000
     23     -41.7016      2.00000
     24     -41.7016      2.00000
     25     -41.6752      2.00000
     26     -41.6752      2.00000
     27     -41.6752      2.00000
     28     -41.6752      2.00000
     29     -41.6713      2.00000
     30     -41.6713      2.00000
     31     -41.6713      2.00000
     32     -41.6713      2.00000
     33     -41.5875      2.00000
     34     -41.5875      2.00000
     35     -41.5875      2.00000
     36     -41.5875      2.00000
     37     -41.5703      2.00000
     38     -41.5703      2.00000
     39     -41.5703      2.00000
     40     -41.5703      2.00000
     41     -41.5632      2.00000
     42     -41.5632      2.00000
     43     -41.5632      2.00000
     44     -41.5632      2.00000
     45     -41.5457      2.00000
     46     -41.5457      2.00000
     47     -41.5457      2.00000
     48     -41.5457      2.00000
     49     -41.2507      2.00000
     50     -41.2507      2.00000
     51     -41.2507      2.00000
     52     -41.2507      2.00000
     53     -41.2345      2.00000
     54     -41.2345      2.00000
     55     -41.2345      2.00000
     56     -41.2345      2.00000
     57     -41.2304      2.00000
     58     -41.2304      2.00000
     59     -41.2304      2.00000
     60     -41.2304      2.00000
[...]
    306       8.8024      0.00000
    307       8.8046      0.00000
    308       8.8064      0.00000
    309       8.8416      0.00000
    310       8.8450      0.00000
    311       8.8464      0.00000
    312       8.8485      0.00000
    313       9.0914      0.00000
    314       9.0914      0.00000
    315       9.0914      0.00000
    316       9.0915      0.00000
    317       9.9201      0.00000
    318       9.9326      0.00000
    319       9.9387      0.00000
    320       9.9427      0.00000

 soft charge-density along one line, spin component           1
         0         1         2         3         4         5         6         7         8         9
 total charge-density along one line

------------------------ aborting loop because EDIFF is reached ----------------------------------------

  FORCE on cell =-STRESS in cart. coord.  units (eV):
  Direction    XX          YY          ZZ          XY          YZ          ZX
  Alpha Z   875.35513   875.35513   875.35513
  Ewald  161541.80120161541.80120************     0.00000    -0.00000    -0.00000
  Hartree171572.21391171572.21391************    -0.00000    -0.00000    -0.00000
  E(xc)   -2455.98179 -2455.98179 -2456.07649     0.00000    -0.00000     0.00000
  Local  ************************343382.56695     0.00000     0.00000    -0.00000
  n-local -2831.52430 -2832.38314 -2851.07905     0.00000     0.00000     0.00000
  augment  1051.67787  1051.67787  1042.25961     0.00000    -0.00000    -0.00000
  Kinetic  7303.10323  7305.79096  7343.24159    -0.00000    -0.00000     0.00000
  Fock        0.00000     0.00000     0.00000     0.00000     0.00000     0.00000
  Total     -29.92823   -29.92823    -2.41078     0.00000     0.00000     0.00000
  in kB     -31.55346   -31.55346    -2.54169     0.00000     0.00000     0.00000

 VOLUME and BASIS-vectors are now :
  energy-cutoff  :      600.00
  volume of cell :     1519.65
      direct lattice vectors                 reciprocal lattice vectors
     8.440582262  0.000000000  0.000000000     0.118475239  0.000000000  0.000000000
     0.000000000  8.440582262  0.000000000     0.000000000  0.118475239  0.000000000
     0.000000000  0.000000000 21.330436697     0.000000000  0.000000000  0.046881366

  length of vectors
     8.440582262  8.440582262 21.330436697     0.118475239  0.118475239  0.046881366

 FORCES acting on ions:
    Electron-Ion                     Ewald-Force                    Non-Local-Force
   0.294E-12 -.428E-12 0.207E+04   -.844E-13 0.331E-13 -.206E+04   0.102E-24 -.517E-25 -.679E+01
   0.862E-12 -.163E-11 0.207E+04   0.954E-13 0.107E-13 -.206E+04   0.207E-24 0.569E-24 -.679E+01
   0.353E-12 0.111E-12 0.685E+03   0.000E+00 0.711E-14 -.685E+03   0.000E+00 0.827E-24 0.442E+00
   0.816E-12 -.162E-12 0.685E+03   -.149E-13 -.708E-13 -.685E+03   0.414E-23 -.207E-23 0.442E+00
   0.343E-12 -.165E-12 -.690E+03   0.134E-10 0.134E-10 0.690E+03   0.463E-22 0.331E-22 -.269E+00
   0.801E-12 -.111E-11 -.690E+03   -.134E-10 -.134E-10 0.690E+03   0.199E-22 0.000E+00 -.269E+00
   0.299E-12 0.404E-12 -.206E+04   0.119E-11 -.107E-11 0.205E+04   0.331E-23 0.290E-23 0.597E+01
   0.911E-12 -.209E-12 -.206E+04   -.104E-11 0.111E-11 0.205E+04   -.620E-24 -.620E-23 0.597E+01
   0.301E-12 -.673E-13 0.207E+04   0.174E-11 -.187E-11 -.206E+04   0.207E-24 0.103E-24 -.679E+01
   0.863E-12 0.290E-11 0.207E+04   -.185E-11 0.185E-11 -.206E+04   0.465E-24 -.759E-25 -.679E+01
   0.358E-12 0.121E-11 0.685E+03   -.293E-11 -.165E-10 -.685E+03   -.414E-24 0.165E-23 0.442E+00
   0.801E-12 0.707E-12 0.685E+03   0.290E-11 0.164E-10 -.685E+03   -.248E-23 0.827E-24 0.442E+00
   0.353E-12 0.643E-12 -.690E+03   0.134E-10 0.390E-13 0.690E+03   0.459E-22 0.662E-23 -.269E+00
   0.809E-12 0.293E-11 -.690E+03   -.134E-10 -.480E-13 0.690E+03   0.000E+00 -.331E-23 -.269E+00
   0.305E-12 0.704E-12 -.206E+04   0.246E-11 0.355E-13 0.205E+04   0.248E-23 -.579E-23 0.597E+01
   0.894E-12 0.123E-11 -.206E+04   -.234E-11 -.178E-13 0.205E+04   0.827E-24 0.248E-23 0.597E+01
   0.122E-11 -.438E-12 0.207E+04   -.363E-11 -.239E-13 -.206E+04   -.103E-24 -.103E-24 -.679E+01
   -.393E-13 0.438E-13 0.207E+04   0.358E-11 -.346E-13 -.206E+04   -.207E-24 -.103E-24 -.679E+01
   0.120E-11 -.106E-11 0.685E+03   0.194E-10 -.782E-13 -.685E+03   -.931E-24 0.000E+00 0.442E+00
   -.520E-13 -.155E-12 0.685E+03   -.195E-10 -.922E-13 -.685E+03   0.827E-24 0.207E-24 0.442E+00
   0.120E-11 -.182E-12 -.690E+03   0.657E-13 0.134E-10 0.690E+03   0.000E+00 -.215E-22 -.269E+00
   -.440E-13 0.128E-12 -.690E+03   -.932E-13 -.134E-10 0.690E+03   0.331E-22 0.662E-23 -.269E+00
   0.123E-11 0.284E-11 -.206E+04   -.121E-11 -.109E-11 0.205E+04   -.807E-23 -.248E-23 0.597E+01
   -.173E-13 -.202E-12 -.206E+04   0.131E-11 0.106E-11 0.205E+04   0.662E-23 0.110E-22 0.597E+01
   0.121E-11 0.512E-12 0.207E+04   -.196E-11 -.194E-11 -.206E+04   0.362E-24 -.207E-24 -.679E+01
   -.459E-13 0.798E-12 0.207E+04   0.182E-11 0.182E-11 -.206E+04   -.103E-24 0.000E+00 -.679E+01
   0.120E-11 0.403E-11 0.685E+03   0.164E-10 -.165E-10 -.685E+03   -.517E-24 -.124E-23 0.442E+00
   -.417E-13 0.576E-12 0.685E+03   -.164E-10 0.163E-10 -.685E+03   0.269E-23 0.145E-23 0.442E+00
   0.120E-11 -.175E-11 -.690E+03   -.568E-13 0.283E-13 0.690E+03   0.331E-22 -.662E-23 -.269E+00
   -.392E-13 0.724E-12 -.690E+03   -.574E-13 -.853E-13 0.690E+03   0.662E-23 0.149E-22 -.269E+00
   0.123E-11 0.363E-11 -.206E+04   0.497E-13 -.213E-13 0.205E+04   -.165E-23 0.827E-23 0.597E+01
   -.400E-14 0.832E-12 -.206E+04   0.699E-14 -.678E-13 0.205E+04   0.827E-24 -.165E-23 0.597E+01
   0.102E-12 -.140E-12 0.513E+03   0.631E-13 0.442E-13 -.513E+03   0.000E+00 -.103E-23 -.789E-01
   0.306E-12 -.338E-11 0.513E+03   0.105E-12 0.515E-13 -.513E+03   0.000E+00 0.414E-24 -.789E-01
   0.817E-13 0.337E-13 0.155E+04   0.329E-13 0.169E-13 -.156E+04   -.620E-24 -.124E-23 0.360E+01
   0.350E-12 -.236E-12 0.155E+04   0.344E-13 0.408E-13 -.156E+04   0.414E-24 -.414E-24 0.360E+01
   0.647E-13 0.471E-13 -.156E+04   -.213E-13 -.941E-14 0.157E+04   0.248E-23 0.414E-24 -.493E+01
   0.367E-12 -.211E-11 -.156E+04   -.277E-13 0.364E-13 0.157E+04   0.165E-23 0.372E-23 -.493E+01
   0.112E-12 0.687E-12 -.512E+03   0.639E-13 0.213E-13 0.512E+03   0.000E+00 0.476E-23 0.258E+00
   0.319E-12 0.926E-13 -.512E+03   0.279E-13 0.428E-13 0.512E+03   -.112E-22 -.662E-23 0.258E+00
   0.119E-12 0.436E-12 0.513E+03   0.568E-13 0.106E-13 -.513E+03   0.000E+00 0.000E+00 -.789E-01
   0.311E-12 0.241E-11 0.513E+03   0.565E-13 0.462E-13 -.513E+03   -.569E-24 0.000E+00 -.789E-01
   0.820E-13 0.653E-12 0.155E+04   0.799E-13 0.684E-13 -.156E+04   -.827E-24 0.124E-23 0.360E+01
   0.353E-12 0.202E-12 0.155E+04   0.218E-13 0.179E-14 -.156E+04   -.207E-24 -.124E-23 0.360E+01
   0.665E-13 0.660E-12 -.156E+04   0.142E-13 -.549E-14 0.157E+04   -.414E-24 0.124E-23 -.493E+01
   0.357E-12 0.100E-11 -.156E+04   -.119E-12 -.711E-14 0.157E+04   0.000E+00 -.235E-23 -.493E+01
   0.118E-12 0.835E-12 -.512E+03   0.142E-13 0.284E-13 0.512E+03   -.414E-23 -.496E-23 0.258E+00
   0.288E-12 0.112E-11 -.512E+03   0.637E-15 0.213E-13 0.512E+03   -.744E-23 -.134E-23 0.258E+00
   0.506E-12 -.155E-12 0.513E+03   0.453E-13 0.780E-13 -.513E+03   0.827E-24 0.414E-24 -.789E-01
   -.513E-13 -.539E-13 0.513E+03   0.809E-14 0.213E-13 -.513E+03   -.414E-24 0.000E+00 -.789E-01
   0.500E-12 -.135E-12 0.155E+04   0.742E-13 0.120E-13 -.156E+04   0.414E-24 -.414E-24 0.360E+01
   -.325E-13 -.236E-12 0.155E+04   0.553E-13 0.311E-13 -.156E+04   -.414E-24 0.000E+00 0.360E+01
   0.459E-12 0.606E-13 -.156E+04   -.275E-13 -.479E-15 0.157E+04   -.186E-23 0.000E+00 -.493E+01
   -.407E-13 0.411E-12 -.156E+04   -.800E-13 0.426E-13 0.157E+04   0.000E+00 0.827E-24 -.493E+01
   0.509E-12 -.124E-11 -.512E+03   -.213E-13 -.711E-14 0.512E+03   -.496E-23 -.496E-23 0.258E+00
   -.579E-13 0.673E-13 -.512E+03   -.498E-13 0.152E-13 0.512E+03   -.331E-23 0.248E-23 0.258E+00
   0.494E-12 -.211E-11 0.513E+03   0.711E-14 -.213E-13 -.513E+03   0.507E-23 -.165E-23 -.789E-01
   -.543E-13 0.296E-12 0.513E+03   0.459E-15 0.497E-13 -.513E+03   -.248E-23 0.160E-23 -.789E-01
   0.500E-12 -.141E-12 0.155E+04   0.395E-13 0.586E-13 -.156E+04   -.827E-24 0.620E-24 0.360E+01
   -.369E-13 0.808E-13 0.155E+04   0.932E-13 0.120E-13 -.156E+04   -.620E-24 0.207E-24 0.360E+01
   0.465E-12 0.108E-11 -.156E+04   -.924E-13 -.164E-15 0.157E+04   0.000E+00 0.165E-23 -.493E+01
   -.373E-13 0.916E-12 -.156E+04   0.355E-13 0.000E+00 0.157E+04   0.414E-24 -.827E-24 -.493E+01
   0.494E-12 0.347E-11 -.512E+03   -.639E-13 0.284E-13 0.512E+03   -.496E-23 0.217E-23 0.258E+00
   -.363E-13 0.175E-12 -.512E+03   -.214E-13 -.142E-13 0.512E+03   -.207E-23 -.124E-23 0.258E+00
   0.263E-10 0.228E-10 0.144E+02   0.247E-13 0.117E-13 -.205E-11   0.157E-21 0.335E-22 -.144E+02

 POSITION                                       TOTAL-FORCE (eV/Angst)
      2.11015      0.00000      7.50000        -0.000000     -0.000000      0.320121
      4.22029      2.11015      7.50000        -0.000000      0.000000      0.320121
      2.11015      2.11015      9.61015        -0.000000     -0.000000      0.032589
      4.22029      0.00000      9.61015        -0.000000     -0.000000      0.032589
      2.11015      0.00000     11.73102        -0.000000     -0.000000      0.002965
      4.22029      2.11015     11.73102         0.000000      0.000000      0.002965
      2.11015      2.11015     13.82955        -0.000000      0.000000      0.001847
      4.22029      0.00000     13.82955         0.000000      0.000000      0.001847
      2.11015      4.22029      7.50000         0.000000      0.000000      0.320121
      4.22029      6.33044      7.50000         0.000000     -0.000000      0.320121
      2.11015      6.33044      9.61015        -0.000000      0.000000      0.032589
      4.22029      4.22029      9.61015        -0.000000     -0.000000      0.032589
      2.11015      4.22029     11.73102        -0.000000      0.000000      0.002965
      4.22029      6.33044     11.73102         0.000000      0.000000      0.002965
      2.11015      6.33044     13.82955        -0.000000      0.000000      0.001847
      4.22029      4.22029     13.82955        -0.000000     -0.000000      0.001847
      6.33044      0.00000      7.50000        -0.000000      0.000000      0.320121
      0.00000      2.11015      7.50000        -0.000000      0.000000      0.320121
      6.33044      2.11015      9.61015         0.000000      0.000000      0.032589
      0.00000      0.00000      9.61015         0.000000     -0.000000      0.032589
      6.33044      0.00000     11.73102         0.000000     -0.000000      0.002965
     -0.00000      2.11015     11.73102         0.000000      0.000000      0.002965
      6.33044      2.11015     13.82955        -0.000000     -0.000000      0.001847
      0.00000     -0.00000     13.82955        -0.000000      0.000000      0.001847
      6.33044      4.22029      7.50000        -0.000000     -0.000000      0.320121
      0.00000      6.33044      7.50000        -0.000000     -0.000000      0.320121
      6.33044      6.33044      9.61015         0.000000     -0.000000      0.032589
      0.00000      4.22029      9.61015         0.000000      0.000000      0.032589
      6.33044      4.22029     11.73102         0.000000      0.000000      0.002965
     -0.00000      6.33044     11.73102         0.000000      0.000000      0.002965
      6.33044      6.33044     13.82955        -0.000000      0.000000      0.001847
      0.00000      4.22029     13.82955        -0.000000     -0.000000      0.001847
      2.11015      0.00000      9.61015        -0.000000     -0.000000      0.054190
      4.22029      2.11015      9.61015        -0.000000     -0.000000      0.054190
      2.11015      2.11015      7.50000        -0.000000     -0.000000     -0.402646
      4.22029      0.00000      7.50000        -0.000000      0.000000     -0.402646
      2.11015     -0.00000     13.86857        -0.000000     -0.000000     -0.001753
      4.22029      2.11015     13.86857        -0.000000      0.000000     -0.001753
      2.11015      2.11015     11.72550        -0.000000     -0.000000     -0.007312
      4.22029     -0.00000     11.72550        -0.000000      0.000000     -0.007312
      2.11015      4.22029      9.61015         0.000000     -0.000000      0.054190
      4.22029      6.33044      9.61015        -0.000000      0.000000      0.054190
      2.11015      6.33044      7.50000        -0.000000     -0.000000     -0.402646
      4.22029      4.22029      7.50000        -0.000000      0.000000     -0.402646
      2.11015      4.22029     13.86857        -0.000000     -0.000000     -0.001753
      4.22029      6.33044     13.86857        -0.000000     -0.000000     -0.001753
      2.11015      6.33044     11.72550        -0.000000      0.000000     -0.007312
      4.22029      4.22029     11.72550        -0.000000      0.000000     -0.007312
      6.33044      0.00000      9.61015        -0.000000     -0.000000      0.054190
      0.00000      2.11015      9.61015        -0.000000      0.000000      0.054190
      6.33044      2.11015      7.50000        -0.000000      0.000000     -0.402646
      0.00000      0.00000      7.50000        -0.000000      0.000000     -0.402646
      6.33044     -0.00000     13.86857        -0.000000     -0.000000     -0.001753
      0.00000      2.11015     13.86857         0.000000      0.000000     -0.001753
      6.33044      2.11015     11.72550        -0.000000      0.000000     -0.007312
      0.00000      0.00000     11.72550         0.000000      0.000000     -0.007312
      6.33044      4.22029      9.61015        -0.000000     -0.000000      0.054190
      0.00000      6.33044      9.61015        -0.000000      0.000000      0.054190
      6.33044      6.33044      7.50000        -0.000000     -0.000000     -0.402646
      0.00000      4.22029      7.50000        -0.000000      0.000000     -0.402646
      6.33044      4.22029     13.86857        -0.000000      0.000000     -0.001753
      0.00000      6.33044     13.86857        -0.000000     -0.000000     -0.001753
      6.33044      6.33044     11.72550        -0.000000     -0.000000     -0.007312
      0.00000      4.22029     11.72550        -0.000000     -0.000000     -0.007312
    total drift:                                0.000000      0.000000     -0.009632

  FREE ENERGIE OF THE ION-ELECTRON SYSTEM (eV)
  free  energy   TOTEN  =      -264.83545559 eV

  energy  without entropy=     -264.83545559  energy(sigma->0) =     -264.83545559

 d Force = 0.7801917E-04[-0.919E-04, 0.248E-03]  d Energy = 0.8116510E-04-0.315E-05
 d Force = 0.1128931E+02[ 0.113E+02, 0.113E+02]  d Ewald  = 0.1128931E+02-0.305E-06

 Conjugate gradient step on ions:
 trial-energy change:   -0.000081  1 .order   -0.000078   -0.000248    0.000092
  (g-gl).g = 0.161E-03      g.g   = 0.183E-03  gl.gl    = 0.603E-03
 g(Force)  = 0.183E-03   g(Stress)= 0.000E+00 ortho     =-0.392E-05
 gamma     =   0.26687
 trial     =   1.36334
 opt step  =   0.99458  (harmonic =   0.99458) maximal distance =0.00116630
 next E    =  -264.835465   (d E  =  -0.00009)

 reached required accuracy - stopping structural energy minimisation