 vasp.6.3.0 20Jan22 (build Apr  1 2022 16:44:48) complex
 executed on        HPECrayEX_GCC date 2022.12.19  14:32:01

 INCAR:
   SYSTEM = MgO-rocksalt
   ISMEAR = 0
   SIGMA = 0.05
   EDIFF = 1E-7
   ALGO = ALL
   ISTART = 0
   IBRION = 5
   POTIM = 0.035
   NFREE = 2
   ISYM = 0
   DIPOL = 0.5 0.5 0.5
   IDIPOL = 3
   LDIPOL = .TRUE.
   LHFCALC = .TRUE.
   GGA = PE
   IVDW = 13
   VDW_S8 = 1.2007
   VDW_A1 = 0.4009
   VDW_A2 = 5.0293
   ENCUT = 600
   PREC = Accurate
   LASPH = .TRUE.
   LREAL = .FALSE.
   ISPIN = 1
   NELM = 200
   NELMIN = 8
   NCORE = 8
   KPAR = 1
   LWAVE = .FALSE.
   LCHARG = .FALSE.

 POTCAR:    PAW_PBE C 08Apr2002
 POTCAR:    PAW_PBE O 08Apr2002
 POTCAR:    PAW_PBE Mg_pv 13Apr2007
 POTCAR:    PAW_PBE O 08Apr2002
 POTCAR:    PAW_PBE C 08Apr2002
   VRHFIN =C: s2p2

   TITEL  = PAW_PBE C 08Apr2002
   POMASS =   12.011; ZVAL   =    4.000    mass and valenz
   ENMAX  =  400.000; ENMIN  =  300.000 eV

[...]

   TITEL  = PAW_PBE Mg_pv 13Apr2007
   POMASS =   24.305; ZVAL   =    8.000    mass and valenz
   ENMAX  =  403.929; ENMIN  =  302.947 eV

   TITEL  = PAW_PBE O 08Apr2002
   POMASS =   16.000; ZVAL   =    6.000    mass and valenz
   ENMAX  =  400.000; ENMIN  =  300.000 eV

  PAW_PBE C 08Apr2002                   :
  PAW_PBE O 08Apr2002                   :
  PAW_PBE Mg_pv 13Apr2007               :
  PAW_PBE O 08Apr2002                   :

 POSCAR:  C  O Mg  O
  positions in direct lattice
|           W    W    AA    RRRRR   N    N  II  N    N   GGGG   !!!           |
|           W    W   A  A   R    R  NN   N  II  NN   N  G    G  !!!           |
|           W    W  A    A  R    R  N N  N  II  N N  N  G       !!!           |
|           W WW W  AAAAAA  RRRRR   N  N N  II  N  N N  G  GGG   !            |
|           WW  WW  A    A  R   R   N   NN  II  N   NN  G    G                |
|           W    W  A    A  R    R  N    N  II  N    N   GGGG   !!!           |
|     Specifying the vdW parameters                                           |
|     VDW_S8 = 1.201                                                          |
|     VDW_A1 = 0.401                                                          |
|     VDW_A2 = 5.029                                                          |
|     in the INCAR file will overwrite the defaults for pbe0. Please make     |
|     sure that is what you intended.                                         |

 ion  position               nearest neighbor table
   1  0.500  0.500  0.766-   2 1.13
   2  0.500  0.500  0.819-   1 1.13
   3  0.250  0.000  0.353-  37 2.09  38 2.09  45 2.09  54 2.09  35 2.09
   4  0.500  0.250  0.353-  37 2.09  38 2.09  46 2.09  53 2.09  36 2.09
   5  0.250  0.250  0.451-  35 2.09  36 2.09  43 2.09  52 2.09  37 2.09  41 2.09
   6  0.500  0.000  0.451-  35 2.09  36 2.09  44 2.09  51 2.09  38 2.09  42 2.09
   7  0.250  0.000  0.550-  42 2.09  41 2.09  49 2.09  58 2.09  35 2.10  39 2.12
   8  0.500  0.250  0.550-  50 2.08  41 2.09  57 2.09  42 2.09  36 2.10  40 2.12
   9  0.250  0.250  0.647-  41 2.08  39 2.09  56 2.09  47 2.09  40 2.09
  10  0.500  0.000  0.647-  40 2.08  48 2.08  42 2.08  39 2.09  55 2.09
  11  0.250  0.500  0.353-  37 2.09  45 2.09  46 2.09  62 2.09  43 2.09
  12  0.500  0.750  0.353-  38 2.09  45 2.09  46 2.09  61 2.09  44 2.09
  13  0.250  0.750  0.451-  35 2.09  43 2.09  44 2.09  60 2.09  45 2.09  49 2.09
  14  0.500  0.500  0.451-  36 2.09  43 2.09  44 2.09  59 2.09  46 2.09  50 2.10
  15  0.250  0.500  0.550-  50 2.08  49 2.09  41 2.09  66 2.09  43 2.10  47 2.12
  16  0.500  0.750  0.550-  50 2.08  49 2.09  65 2.09  42 2.09  44 2.10  48 2.12
  17  0.250  0.750  0.647-  49 2.08  39 2.09  64 2.09  47 2.09  48 2.09
  18  0.500  0.500  0.649-  40 2.10  47 2.10  48 2.10  63 2.10  50 2.12
  19  0.750  0.000  0.353-  38 2.09  53 2.09  54 2.09  61 2.09  51 2.09
  20  0.000  0.250  0.353-  37 2.09  53 2.09  54 2.09  62 2.09  52 2.09
  21  0.750  0.250  0.451-  36 2.09  51 2.09  52 2.09  59 2.09  53 2.09  57 2.09
  22  0.000  0.000  0.451-  35 2.09  51 2.09  52 2.09  60 2.09  54 2.09  58 2.09
  23  0.750  0.000  0.550-  42 2.09  57 2.09  65 2.09  58 2.09  51 2.10  55 2.12
  24  0.000  0.250  0.550-  66 2.09  57 2.09  41 2.09  58 2.09  52 2.10  56 2.12
  25  0.750  0.250  0.647-  57 2.08  56 2.09  55 2.09  40 2.09  63 2.09
  26  0.000  0.000  0.647-  58 2.08  55 2.09  56 2.09  39 2.09  64 2.09
  27  0.750  0.500  0.353-  46 2.09  53 2.09  61 2.09  62 2.09  59 2.09
  28  0.000  0.750  0.353-  45 2.09  54 2.09  61 2.09  62 2.09  60 2.09
  29  0.750  0.750  0.451-  44 2.09  51 2.09  59 2.09  60 2.09  61 2.09  65 2.09
  30  0.000  0.500  0.451-  43 2.09  52 2.09  59 2.09  60 2.09  62 2.09  66 2.09
  31  0.750  0.500  0.550-  50 2.08  57 2.09  65 2.09  66 2.09  59 2.10  63 2.12
  32  0.000  0.750  0.550-  66 2.09  65 2.09  49 2.09  58 2.09  60 2.10  64 2.12
  33  0.750  0.750  0.647-  65 2.08  64 2.09  55 2.09  48 2.09  63 2.09
  34  0.000  0.500  0.647-  47 2.08  63 2.08  66 2.08  64 2.09  56 2.09
  35  0.250  0.000  0.451-   5 2.09   6 2.09  13 2.09  22 2.09   3 2.09   7 2.10
  36  0.500  0.250  0.451-   5 2.09   6 2.09  14 2.09  21 2.09   4 2.09   8 2.10
  37  0.250  0.250  0.353-   3 2.09   4 2.09  11 2.09  20 2.09   5 2.09
  38  0.500  0.000  0.353-   3 2.09   4 2.09  12 2.09  19 2.09   6 2.09
  39  0.250  0.000  0.650-  26 2.09  17 2.09   9 2.09  10 2.09   7 2.12
  40  0.500  0.249  0.650-  10 2.08   9 2.09  25 2.09  18 2.10   8 2.12
  41  0.250  0.250  0.549-   9 2.08   8 2.09  15 2.09   7 2.09  24 2.09   5 2.09
  42  0.500  0.000  0.549-  10 2.08   7 2.09  23 2.09  16 2.09   8 2.09   6 2.09
  43  0.250  0.500  0.451-   5 2.09  13 2.09  14 2.09  30 2.09  11 2.09  15 2.10
  44  0.500  0.750  0.451-   6 2.09  13 2.09  14 2.09  29 2.09  12 2.09  16 2.10
  45  0.250  0.750  0.353-   3 2.09  11 2.09  12 2.09  28 2.09  13 2.09
  46  0.500  0.500  0.353-   4 2.09  11 2.09  12 2.09  27 2.09  14 2.09
  47  0.249  0.500  0.650-  34 2.08  17 2.09   9 2.09  18 2.10  15 2.12
  48  0.500  0.751  0.650-  10 2.08  17 2.09  33 2.09  18 2.10  16 2.12
  49  0.250  0.750  0.549-  17 2.08  16 2.09  15 2.09   7 2.09  32 2.09  13 2.09
  50  0.500  0.500  0.550-   8 2.08  15 2.08  16 2.08  31 2.08  14 2.10  18 2.12
  51  0.750  0.000  0.451-   6 2.09  21 2.09  22 2.09  29 2.09  19 2.09  23 2.10
  52  0.000  0.250  0.451-   5 2.09  21 2.09  22 2.09  30 2.09  20 2.09  24 2.10
  53  0.750  0.250  0.353-   4 2.09  19 2.09  20 2.09  27 2.09  21 2.09
  54  0.000  0.000  0.353-   3 2.09  19 2.09  20 2.09  28 2.09  22 2.09
  55  0.750  0.000  0.650-  26 2.09  25 2.09  33 2.09  10 2.09  23 2.12
  56  0.000  0.250  0.650-  26 2.09  25 2.09   9 2.09  34 2.09  24 2.12
  57  0.750  0.250  0.549-  25 2.08  31 2.09   8 2.09  23 2.09  24 2.09  21 2.09
  58  0.000  0.000  0.549-  26 2.08  23 2.09  24 2.09   7 2.09  32 2.09  22 2.09
  59  0.750  0.500  0.451-  14 2.09  21 2.09  29 2.09  30 2.09  27 2.09  31 2.10
  60  0.000  0.750  0.451-  13 2.09  22 2.09  29 2.09  30 2.09  28 2.09  32 2.10
  61  0.750  0.750  0.353-  12 2.09  19 2.09  27 2.09  28 2.09  29 2.09
  62  0.000  0.500  0.353-  11 2.09  20 2.09  27 2.09  28 2.09  30 2.09
  63  0.751  0.500  0.650-  34 2.08  33 2.09  25 2.09  18 2.10  31 2.12
  64  0.000  0.750  0.650-  26 2.09  17 2.09  33 2.09  34 2.09  32 2.12
  65  0.750  0.750  0.549-  33 2.08  31 2.09  16 2.09  32 2.09  23 2.09  29 2.09
  66  0.000  0.500  0.549-  34 2.08  32 2.09  24 2.09  31 2.09  15 2.09  30 2.09

IMPORTANT INFORMATION: All symmetrisations will be switched off!
NOSYMM: (Re-)initialisation of all symmetry stuff for point group C_1.

                                     Primitive cell

  volume of cell :    1482.1129

  direct lattice vectors                    reciprocal lattice vectors
     8.349111827  0.000000000  0.000000000     0.119773219  0.000000000  0.000000000
     0.000000000  8.349111827  0.000000000     0.000000000  0.119773219  0.000000000
     0.000000000  0.000000000 21.261833870     0.000000000  0.000000000  0.047032632

  length of vectors
     8.349111827  8.349111827 21.261833870     0.119773219  0.119773219  0.047032632

  position of ions in fractional coordinates (direct lattice)
     0.500000000  0.500000000  0.765950645
     0.500000000  0.500000000  0.819088148
     0.250000000  0.000000000  0.352744737
     0.500000000  0.250000000  0.352744737
     0.250000000  0.250000000  0.450914912
     0.500000000  0.000000000  0.450914912
     0.250126707  0.000000000  0.549606520
     0.500000000  0.250385208  0.549848982
     0.249782306  0.249782306  0.647054444
     0.500000000  0.000000000  0.647128461
     0.250000000  0.500000000  0.352744737
     0.500000000  0.750000000  0.352744737
     0.250000000  0.750000000  0.450914912
     0.500000000  0.500000000  0.450914912
     0.250385208  0.500000000  0.549848982
     0.500000000  0.749614792  0.549848982
     0.249782306  0.750217694  0.647054444
     0.500000000  0.500000000  0.649476521
     0.750000000  0.000000000  0.352744737
     0.000000000  0.250000000  0.352744737
     0.750000000  0.250000000  0.450914912
     0.000000000  0.000000000  0.450914912
     0.749873293  0.000000000  0.549606520
     0.000000000  0.250126707  0.549606520
     0.750217694  0.249782306  0.647054444
     0.000000000  0.000000000  0.647144567
     0.750000000  0.500000000  0.352744737
     0.000000000  0.750000000  0.352744737
     0.750000000  0.750000000  0.450914912
     0.000000000  0.500000000  0.450914912
     0.749614792  0.500000000  0.549848982
     0.000000000  0.749873293  0.549606520
     0.750217694  0.750217694  0.647054444
     0.000000000  0.500000000  0.647128461
     0.250000000  0.000000000  0.450914912
     0.500000000  0.250000000  0.450914912
     0.250000000  0.250000000  0.352744737
     0.500000000  0.000000000  0.352744737
     0.249777413  0.000000000  0.649514620
     0.500000000  0.248844121  0.649619708
     0.250005084  0.250005084  0.549398552
     0.500000000  0.000000000  0.549333945
     0.250000000  0.500000000  0.450914912
     0.500000000  0.750000000  0.450914912
     0.250000000  0.750000000  0.352744737
     0.500000000  0.500000000  0.352744737
     0.248844121  0.500000000  0.649619708
     0.500000000  0.751155879  0.649619708
     0.250005084  0.749994916  0.549398552
     0.500000000  0.500000000  0.549862587
     0.750000000  0.000000000  0.450914912
     0.000000000  0.250000000  0.450914912
     0.750000000  0.250000000  0.352744737
     0.000000000  0.000000000  0.352744737
     0.750222587  0.000000000  0.649514620
     0.000000000  0.249777413  0.649514620
     0.749994916  0.250005084  0.549398552
     0.000000000  0.000000000  0.549313075
     0.750000000  0.500000000  0.450914912
     0.000000000  0.750000000  0.450914912
     0.750000000  0.750000000  0.352744737
     0.000000000  0.500000000  0.352744737
     0.751155879  0.500000000  0.649619708
     0.000000000  0.750222587  0.649514620
     0.749994916  0.749994916  0.549398552
     0.000000000  0.500000000  0.549333945

  ion indices of the primitive-cell ions
   primitive index   ion index
                 1           1
                 2           2
                 3           3
                 4           4
[...]
      2.085420  0.000000 13.809872            0           0           0
      4.174556  2.077627 13.812106            0           0           0
      2.087320  2.087320 11.681221            0           0           0
      4.174556  0.000000 11.679847            0           0           0
      2.087278  4.174556  9.587278            0           0           0
      4.174556  6.261834  9.587278            0           0           0
      2.087278  6.261834  7.500000            0           0           0
      4.174556  4.174556  7.500000            0           0           0
      2.077627  4.174556 13.812106            0           0           0
      4.174556  6.271484 13.812106            0           0           0
      2.087320  6.261791 11.681221            0           0           0
      4.174556  4.174556 11.691087            0           0           0
      6.261834  0.000000  9.587278            0           0           0
      0.000000  2.087278  9.587278            0           0           0
      6.261834  2.087278  7.500000            0           0           0
      0.000000  0.000000  7.500000            0           0           0
      6.263692  0.000000 13.809872            0           0           0
      0.000000  2.085420 13.809872            0           0           0
      6.261791  2.087320 11.681221            0           0           0
      0.000000  0.000000 11.679403            0           0           0
      6.261834  4.174556  9.587278            0           0           0
      0.000000  6.261834  9.587278            0           0           0
      6.261834  6.261834  7.500000            0           0           0
      0.000000  4.174556  7.500000            0           0           0
      6.271484  4.174556 13.812106            0           0           0
      0.000000  6.263692 13.809872            0           0           0
      6.261791  6.261791 11.681221            0           0           0
      0.000000  4.174556 11.679847            0           0           0

[...]

   4 f  =    2.984043 THz    18.749294 2PiTHz   99.536955 cm-1    12.341004 meV
             X         Y         Z           dx          dy          dz
      4.174556  4.174556 16.285515    -0.001028   -0.004434    0.653063
      4.174556  4.174556 17.415316     0.000980   -0.005861    0.757267
      2.087278  0.000000  7.500000            0           0           0
      4.174556  2.087278  7.500000            0           0           0
      2.087278  2.087278  9.587278            0           0           0
      4.174556  0.000000  9.587278            0           0           0
      2.088336  0.000000 11.685643            0           0           0
      4.174556  2.090494 11.690798            0           0           0
      2.085460  2.085460 13.757564            0           0           0
      4.174556  0.000000 13.759138            0           0           0
      2.087278  4.174556  7.500000            0           0           0
      4.174556  6.261834  7.500000            0           0           0
      2.087278  6.261834  9.587278            0           0           0
      4.174556  4.174556  9.587278            0           0           0
      2.090494  4.174556 11.690798            0           0           0
      4.174556  6.258618 11.690798            0           0           0
      2.085460  6.263651 13.757564            0           0           0
      4.174556  4.174556 13.809062            0           0           0
      6.261834  0.000000  7.500000            0           0           0
      0.000000  2.087278  7.500000            0           0           0
      6.261834  2.087278  9.587278            0           0           0
      0.000000  0.000000  9.587278            0           0           0
      6.260776  0.000000 11.685643            0           0           0
      0.000000  2.088336 11.685643            0           0           0
      6.263651  2.085460 13.757564            0           0           0
      0.000000  0.000000 13.759480            0           0           0
      6.261834  4.174556  7.500000            0           0           0
      0.000000  6.261834  7.500000            0           0           0
      6.261834  6.261834  9.587278            0           0           0
      0.000000  4.174556  9.587278            0           0           0
      6.258618  4.174556 11.690798            0           0           0
      0.000000  6.260776 11.685643            0           0           0
      6.263651  6.263651 13.757564            0           0           0
      0.000000  4.174556 13.759138            0           0           0
      2.087278  0.000000  9.587278            0           0           0
      4.174556  2.087278  9.587278            0           0           0
      2.087278  2.087278  7.500000            0           0           0
      4.174556  0.000000  7.500000            0           0           0
      2.085420  0.000000 13.809872            0           0           0
      4.174556  2.077627 13.812106            0           0           0
      2.087320  2.087320 11.681221            0           0           0
      4.174556  0.000000 11.679847            0           0           0
      2.087278  4.174556  9.587278            0           0           0
      4.174556  6.261834  9.587278            0           0           0
      2.087278  6.261834  7.500000            0           0           0
      4.174556  4.174556  7.500000            0           0           0
      2.077627  4.174556 13.812106            0           0           0
      4.174556  6.271484 13.812106            0           0           0
      2.087320  6.261791 11.681221            0           0           0
      4.174556  4.174556 11.691087            0           0           0
      6.261834  0.000000  9.587278            0           0           0
      0.000000  2.087278  9.587278            0           0           0
      6.261834  2.087278  7.500000            0           0           0
      0.000000  0.000000  7.500000            0           0           0
      6.263692  0.000000 13.809872            0           0           0
      0.000000  2.085420 13.809872            0           0           0
      6.261791  2.087320 11.681221            0           0           0
      0.000000  0.000000 11.679403            0           0           0
      6.261834  4.174556  9.587278            0           0           0
      0.000000  6.261834  9.587278            0           0           0
      6.261834  6.261834  7.500000            0           0           0
      0.000000  4.174556  7.500000            0           0           0
      6.271484  4.174556 13.812106            0           0           0
      0.000000  6.263692 13.809872            0           0           0
      6.261791  6.261791 11.681221            0           0           0
      0.000000  4.174556 11.679847            0           0           0

   5 f/i=    0.303858 THz     1.909194 2PiTHz   10.135600 cm-1     1.256654 meV
             X         Y         Z           dx          dy          dz
      4.174556  4.174556 16.285515     0.303519   -0.216925   -0.002965
      4.174556  4.174556 17.415316     0.754462   -0.539987   -0.003457
      2.087278  0.000000  7.500000            0           0           0
      4.174556  2.087278  7.500000            0           0           0
      2.087278  2.087278  9.587278            0           0           0
      4.174556  0.000000  9.587278            0           0           0
      2.088336  0.000000 11.685643            0           0           0
      4.174556  2.090494 11.690798            0           0           0
      2.085460  2.085460 13.757564            0           0           0
      4.174556  0.000000 13.759138            0           0           0
      2.087278  4.174556  7.500000            0           0           0
      4.174556  6.261834  7.500000            0           0           0
      2.087278  6.261834  9.587278            0           0           0
      4.174556  4.174556  9.587278            0           0           0
      2.090494  4.174556 11.690798            0           0           0
      4.174556  6.258618 11.690798            0           0           0
      2.085460  6.263651 13.757564            0           0           0
      4.174556  4.174556 13.809062            0           0           0
      6.261834  0.000000  7.500000            0           0           0
      0.000000  2.087278  7.500000            0           0           0
      6.261834  2.087278  9.587278            0           0           0
      0.000000  0.000000  9.587278            0           0           0
      6.260776  0.000000 11.685643            0           0           0
      0.000000  2.088336 11.685643            0           0           0
      6.263651  2.085460 13.757564            0           0           0
      0.000000  0.000000 13.759480            0           0           0
      6.261834  4.174556  7.500000            0           0           0
      0.000000  6.261834  7.500000            0           0           0
      6.261834  6.261834  9.587278            0           0           0
      0.000000  4.174556  9.587278            0           0           0
      6.258618  4.174556 11.690798            0           0           0
      0.000000  6.260776 11.685643            0           0           0
      6.263651  6.263651 13.757564            0           0           0
      0.000000  4.174556 13.759138            0           0           0
      2.087278  0.000000  9.587278            0           0           0
      4.174556  2.087278  9.587278            0           0           0
      2.087278  2.087278  7.500000            0           0           0
      4.174556  0.000000  7.500000            0           0           0
      2.085420  0.000000 13.809872            0           0           0
      4.174556  2.077627 13.812106            0           0           0
      2.087320  2.087320 11.681221            0           0           0
      4.174556  0.000000 11.679847            0           0           0
      2.087278  4.174556  9.587278            0           0           0
      4.174556  6.261834  9.587278            0           0           0
      2.087278  6.261834  7.500000            0           0           0
      4.174556  4.174556  7.500000            0           0           0
      2.077627  4.174556 13.812106            0           0           0
      4.174556  6.271484 13.812106            0           0           0
      2.087320  6.261791 11.681221            0           0           0
      4.174556  4.174556 11.691087            0           0           0
      6.261834  0.000000  9.587278            0           0           0
      0.000000  2.087278  9.587278            0           0           0
      6.261834  2.087278  7.500000            0           0           0
      0.000000  0.000000  7.500000            0           0           0
      6.263692  0.000000 13.809872            0           0           0
      0.000000  2.085420 13.809872            0           0           0
      6.261791  2.087320 11.681221            0           0           0
      0.000000  0.000000 11.679403            0           0           0
      6.261834  4.174556  9.587278            0           0           0
      0.000000  6.261834  9.587278            0           0           0
      6.261834  6.261834  7.500000            0           0           0
      0.000000  4.174556  7.500000            0           0           0
      6.271484  4.174556 13.812106            0           0           0
      0.000000  6.263692 13.809872            0           0           0
      6.261791  6.261791 11.681221            0           0           0
      0.000000  4.174556 11.679847            0           0           0

   6 f/i=    0.576718 THz     3.623625 2PiTHz   19.237236 cm-1     2.385112 meV
             X         Y         Z           dx          dy          dz
      4.174556  4.174556 16.285515     0.218196    0.304613    0.003563
      4.174556  4.174556 17.415316     0.539494    0.754001    0.004144
      2.087278  0.000000  7.500000            0           0           0
      4.174556  2.087278  7.500000            0           0           0
      2.087278  2.087278  9.587278            0           0           0
      4.174556  0.000000  9.587278            0           0           0
      2.088336  0.000000 11.685643            0           0           0
      4.174556  2.090494 11.690798            0           0           0
      2.085460  2.085460 13.757564            0           0           0
      4.174556  0.000000 13.759138            0           0           0
      2.087278  4.174556  7.500000            0           0           0
      4.174556  6.261834  7.500000            0           0           0
      2.087278  6.261834  9.587278            0           0           0
      4.174556  4.174556  9.587278            0           0           0
      2.090494  4.174556 11.690798            0           0           0
      4.174556  6.258618 11.690798            0           0           0
      2.085460  6.263651 13.757564            0           0           0
      4.174556  4.174556 13.809062            0           0           0
      6.261834  0.000000  7.500000            0           0           0
      0.000000  2.087278  7.500000            0           0           0
      6.261834  2.087278  9.587278            0           0           0
      0.000000  0.000000  9.587278            0           0           0
      6.260776  0.000000 11.685643            0           0           0
      0.000000  2.088336 11.685643            0           0           0
      6.263651  2.085460 13.757564            0           0           0
      0.000000  0.000000 13.759480            0           0           0
      6.261834  4.174556  7.500000            0           0           0
      0.000000  6.261834  7.500000            0           0           0
      6.261834  6.261834  9.587278            0           0           0
      0.000000  4.174556  9.587278            0           0           0
      6.258618  4.174556 11.690798            0           0           0
      0.000000  6.260776 11.685643            0           0           0
      6.263651  6.263651 13.757564            0           0           0
      0.000000  4.174556 13.759138            0           0           0
      2.087278  0.000000  9.587278            0           0           0
      4.174556  2.087278  9.587278            0           0           0
      2.087278  2.087278  7.500000            0           0           0
      4.174556  0.000000  7.500000            0           0           0
      2.085420  0.000000 13.809872            0           0           0
      4.174556  2.077627 13.812106            0           0           0
      2.087320  2.087320 11.681221            0           0           0
      4.174556  0.000000 11.679847            0           0           0
      2.087278  4.174556  9.587278            0           0           0
      4.174556  6.261834  9.587278            0           0           0
      2.087278  6.261834  7.500000            0           0           0
      4.174556  4.174556  7.500000            0           0           0
      2.077627  4.174556 13.812106            0           0           0
      4.174556  6.271484 13.812106            0           0           0
      2.087320  6.261791 11.681221            0           0           0
      4.174556  4.174556 11.691087            0           0           0
      6.261834  0.000000  9.587278            0           0           0
      0.000000  2.087278  9.587278            0           0           0
      6.261834  2.087278  7.500000            0           0           0
      0.000000  0.000000  7.500000            0           0           0
      6.263692  0.000000 13.809872            0           0           0
      0.000000  2.085420 13.809872            0           0           0
      6.261791  2.087320 11.681221            0           0           0
      0.000000  0.000000 11.679403            0           0           0
      6.261834  4.174556  9.587278            0           0           0
      0.000000  6.261834  9.587278            0           0           0
      6.261834  6.261834  7.500000            0           0           0
      0.000000  4.174556  7.500000            0           0           0
      6.271484  4.174556 13.812106            0           0           0
      0.000000  6.263692 13.809872            0           0           0
      6.261791  6.261791 11.681221            0           0           0
      0.000000  4.174556 11.679847            0           0           0

 Finite differences POTIM=   3.5000000000000003E-002