 vasp.6.3.0 20Jan22 (build Apr  1 2022 16:44:48) complex
 executed on        HPECrayEX_GCC date 2022.09.24  18:10:45

 INCAR:
   SYSTEM = MgO-rocksalt
   ISMEAR = 0
   SIGMA = 0.05
   EDIFF = 1E-6
   ALGO = ALL
   ISTART = 0
   IBRION = 2
   NSW = 1000
   ISYM = 2
   ISIF = 2
   EDIFFG = -0.01
   DIPOL = 0.5 0.5 0.5
   IDIPOL = 3
   LDIPOL = .TRUE.
   GGA = PE
   IVDW = 1
   VDW_C6 = 0.63 0.70
   VDW_R0 = 1.243 1.342
   ENCUT = 600
   PREC = Normal
   LASPH = .TRUE.
   LREAL = .FALSE.
   ISPIN = 1
   NELM = 200
   NELMIN = 8
   NCORE = 4
   KPAR = 2
   LWAVE = .FALSE.
   LCHARG = .FALSE.

 POTCAR:    PAW_PBE Mg_pv 13Apr2007
 POTCAR:    PAW_PBE O 08Apr2002
 POTCAR:    PAW_PBE Mg_pv 13Apr2007
   VRHFIN =Mg: p6s2

   TITEL  = PAW_PBE Mg_pv 13Apr2007
   POMASS =   24.305; ZVAL   =    8.000    mass and valenz
   ENMAX  =  403.929; ENMIN  =  302.947 eV

   TITEL  = PAW_PBE O 08Apr2002
   POMASS =   16.000; ZVAL   =    6.000    mass and valenz
   ENMAX  =  400.000; ENMIN  =  300.000 eV

  PAW_PBE Mg_pv 13Apr2007               :
  PAW_PBE O 08Apr2002                   :

 POSCAR: Mg  O
  positions in direct lattice
 exchange correlation table for  LEXCH =        8
   RHO(1)=    0.500       N(1)  =     2000
   RHO(2)=  100.500       N(2)  =     4000

 ion  position               nearest neighbor table
   1  0.250  0.000  0.351-  33 2.12  35 2.12  36 2.12  43 2.12  52 2.12
   2  0.500  0.250  0.351-  34 2.12  35 2.12  36 2.12  44 2.12  51 2.12
   3  0.250  0.250  0.450-  35 2.12  34 2.12  33 2.12  41 2.12  50 2.12  39 2.12
   4  0.500  0.000  0.450-  36 2.12  34 2.12  33 2.12  42 2.12  49 2.12  40 2.12
   5  0.250  0.000  0.550-  37 2.12  39 2.12  40 2.12  47 2.12  56 2.12  33 2.12
   6  0.500  0.250  0.550-  38 2.12  39 2.12  40 2.12  48 2.12  55 2.12  34 2.12
   7  0.250  0.250  0.649-  39 2.12  38 2.12  37 2.12  45 2.12  54 2.12
   8  0.500  0.000  0.649-  40 2.12  38 2.12  37 2.12  46 2.12  53 2.12
   9  0.250  0.500  0.351-  41 2.12  35 2.12  43 2.12  44 2.12  60 2.12
  10  0.500  0.750  0.351-  42 2.12  36 2.12  43 2.12  44 2.12  59 2.12
  11  0.250  0.750  0.450-  43 2.12  41 2.12  42 2.12  33 2.12  58 2.12  47 2.12
  12  0.500  0.500  0.450-  44 2.12  41 2.12  42 2.12  34 2.12  57 2.12  48 2.12
  13  0.250  0.500  0.550-  45 2.12  39 2.12  47 2.12  48 2.12  64 2.12  41 2.12
  14  0.500  0.750  0.550-  46 2.12  40 2.12  47 2.12  48 2.12  63 2.12  42 2.12
  15  0.250  0.750  0.649-  47 2.12  45 2.12  46 2.12  37 2.12  62 2.12
  16  0.500  0.500  0.649-  48 2.12  45 2.12  46 2.12  38 2.12  61 2.12
  17  0.750  0.000  0.351-  49 2.12  36 2.12  51 2.12  52 2.12  59 2.12
  18  0.000  0.250  0.351-  50 2.12  35 2.12  51 2.12  52 2.12  60 2.12
  19  0.750  0.250  0.450-  51 2.12  49 2.12  50 2.12  34 2.12  57 2.12  55 2.12
  20  0.000  0.000  0.450-  52 2.12  49 2.12  50 2.12  33 2.12  58 2.12  56 2.12
  21  0.750  0.000  0.550-  53 2.12  40 2.12  55 2.12  56 2.12  63 2.12  49 2.12
  22  0.000  0.250  0.550-  54 2.12  39 2.12  55 2.12  56 2.12  64 2.12  50 2.12
  23  0.750  0.250  0.649-  55 2.12  53 2.12  54 2.12  38 2.12  61 2.12
  24  0.000  0.000  0.649-  56 2.12  53 2.12  54 2.12  37 2.12  62 2.12
  25  0.750  0.500  0.351-  57 2.12  51 2.12  44 2.12  59 2.12  60 2.12
  26  0.000  0.750  0.351-  58 2.12  52 2.12  43 2.12  59 2.12  60 2.12
  27  0.750  0.750  0.450-  59 2.12  49 2.12  57 2.12  58 2.12  42 2.12  63 2.12
  28  0.000  0.500  0.450-  60 2.12  50 2.12  57 2.12  58 2.12  41 2.12  64 2.12
  29  0.750  0.500  0.550-  61 2.12  55 2.12  48 2.12  63 2.12  64 2.12  57 2.12
  30  0.000  0.750  0.550-  62 2.12  56 2.12  47 2.12  63 2.12  64 2.12  58 2.12
  31  0.750  0.750  0.649-  63 2.12  53 2.12  61 2.12  62 2.12  46 2.12
  32  0.000  0.500  0.649-  64 2.12  54 2.12  61 2.12  62 2.12  45 2.12
  33  0.250  0.000  0.450-   1 2.12   3 2.12   4 2.12  11 2.12  20 2.12   5 2.12
  34  0.500  0.250  0.450-   2 2.12   3 2.12   4 2.12  12 2.12  19 2.12   6 2.12
  35  0.250  0.250  0.351-   3 2.12   2 2.12   1 2.12   9 2.12  18 2.12
  36  0.500  0.000  0.351-   4 2.12   2 2.12   1 2.12  10 2.12  17 2.12
  37  0.250  0.000  0.649-   5 2.12   7 2.12   8 2.12  15 2.12  24 2.12
  38  0.500  0.250  0.649-   6 2.12   7 2.12   8 2.12  16 2.12  23 2.12
  39  0.250  0.250  0.550-   7 2.12   6 2.12   5 2.12  13 2.12  22 2.12   3 2.12
  40  0.500  0.000  0.550-   8 2.12   6 2.12   5 2.12  14 2.12  21 2.12   4 2.12
  41  0.250  0.500  0.450-   9 2.12   3 2.12  11 2.12  12 2.12  28 2.12  13 2.12
  42  0.500  0.750  0.450-  10 2.12   4 2.12  11 2.12  12 2.12  27 2.12  14 2.12
  43  0.250  0.750  0.351-  11 2.12   9 2.12  10 2.12   1 2.12  26 2.12
  44  0.500  0.500  0.351-  12 2.12   9 2.12  10 2.12   2 2.12  25 2.12
  45  0.250  0.500  0.649-  13 2.12   7 2.12  15 2.12  16 2.12  32 2.12
  46  0.500  0.750  0.649-  14 2.12   8 2.12  15 2.12  16 2.12  31 2.12
  47  0.250  0.750  0.550-  15 2.12  13 2.12  14 2.12   5 2.12  30 2.12  11 2.12
  48  0.500  0.500  0.550-  16 2.12  13 2.12  14 2.12   6 2.12  29 2.12  12 2.12
  49  0.750  0.000  0.450-  17 2.12   4 2.12  19 2.12  20 2.12  27 2.12  21 2.12
  50  0.000  0.250  0.450-  18 2.12   3 2.12  19 2.12  20 2.12  28 2.12  22 2.12
  51  0.750  0.250  0.351-  19 2.12  17 2.12  18 2.12   2 2.12  25 2.12
  52  0.000  0.000  0.351-  20 2.12  17 2.12  18 2.12   1 2.12  26 2.12
  53  0.750  0.000  0.649-  21 2.12   8 2.12  23 2.12  24 2.12  31 2.12
  54  0.000  0.250  0.649-  22 2.12   7 2.12  23 2.12  24 2.12  32 2.12
  55  0.750  0.250  0.550-  23 2.12  21 2.12  22 2.12   6 2.12  29 2.12  19 2.12
  56  0.000  0.000  0.550-  24 2.12  21 2.12  22 2.12   5 2.12  30 2.12  20 2.12
  57  0.750  0.500  0.450-  25 2.12  19 2.12  12 2.12  27 2.12  28 2.12  29 2.12
  58  0.000  0.750  0.450-  26 2.12  20 2.12  11 2.12  27 2.12  28 2.12  30 2.12
  59  0.750  0.750  0.351-  27 2.12  17 2.12  25 2.12  26 2.12  10 2.12
  60  0.000  0.500  0.351-  28 2.12  18 2.12  25 2.12  26 2.12   9 2.12
  61  0.750  0.500  0.649-  29 2.12  23 2.12  16 2.12  31 2.12  32 2.12
  62  0.000  0.750  0.649-  30 2.12  24 2.12  15 2.12  31 2.12  32 2.12
  63  0.750  0.750  0.550-  31 2.12  21 2.12  29 2.12  30 2.12  14 2.12  27 2.12
  64  0.000  0.500  0.550-  32 2.12  22 2.12  29 2.12  30 2.12  13 2.12  28 2.12

  LATTYP: Found a simple tetragonal cell.
 ALAT       =     8.4671426306
 C/A-ratio  =     2.5215539532

  Lattice vectors:

 A1 = (   8.4671426306,   0.0000000000,   0.0000000000)
 A2 = (   0.0000000000,   8.4671426306,   0.0000000000)
 A3 = (   0.0000000000,   0.0000000000,  21.3503569730)

Analysis of symmetry for initial positions (statically):
 Subroutine PRICEL returns following result:

[...]

   8 primitive cells build up your supercell.

 Routine SETGRP: Setting up the symmetry group for a
 simple tetragonal supercell.

 Subroutine GETGRP returns: Found 16 space group operations
 (whereof  8 operations were pure point group operations)
 out of a pool of 16 trial point group operations.

The static configuration has the point symmetry C_4v.
 The point group associated with its full space group is D_4h.

Analysis of symmetry for dynamics (positions and initial velocities):
 Subroutine PRICEL returns following result:

[...]

The dynamic configuration has the point symmetry C_4v.
 The point group associated with its full space group is D_4h.

Analysis of constrained symmetry for selective dynamics:
 Subroutine PRICEL returns following result:

  LATTYP: Found a simple tetragonal cell.
 ALAT       =     2.9935869857
 C/A-ratio  =     7.1320315979

  Lattice vectors:

 A1 = (   2.1167856577,  -2.1167856577,   0.0000000000)
 A2 = (   2.1167856577,   2.1167856577,   0.0000000000)
 A3 = (   0.0000000000,   0.0000000000,  21.3503569730)

   8 primitive cells build up your supercell.

 Routine SETGRP: Setting up the symmetry group for a
 simple tetragonal supercell.

 Subroutine GETGRP returns: Found  8 space group operations
 (whereof  8 operations were pure point group operations)
 out of a pool of 16 trial point group operations.

The constrained configuration has the point symmetry C_4v.

 Subroutine INISYM returns: Found  8 space group operations
 (whereof  8 operations are pure point group operations),
 and found     8 'primitive' translations

                                     Primitive cell

  volume of cell :     191.3326

  direct lattice vectors                    reciprocal lattice vectors
     2.116785658 -2.116785658  0.000000000     0.236207194 -0.236207194  0.000000000
     2.116785658  2.116785658  0.000000000     0.236207194  0.236207194 -0.000000000
     0.000000000  0.000000000 21.350356973    -0.000000000  0.000000000  0.046837624

  length of vectors
     2.993586986  2.993586986 21.350356973     0.334047417  0.334047417  0.046837624

  position of ions in fractional coordinates (direct lattice)
     0.500000000  0.500000000  0.351282183
     0.000000000  0.000000000  0.450427394
     0.500000000  0.500000000  0.549572606
     0.000000000  0.000000000  0.648717817
     0.500000000  0.500000000  0.450427394
     0.000000000  0.000000000  0.351282183
     0.500000000  0.500000000  0.648717817
     0.000000000  0.000000000  0.549572606

  ion indices of the primitive-cell ions
   primitive index   ion index
                 1           1
                 2           3
                 3           5
                 4           7
                 5          33
                 6          35
                 7          37
                 8          39

 KPOINTS: pymatgen v2020.8.13 with grid density =

Automatic generation of k-mesh.
 Grid dimensions read from file:
 generate k-points for:    2    2    1

 Generating k-lattice:

  Cartesian coordinates                     Fractional coordinates (reciprocal lattice)
     0.059051798  0.000000000  0.000000000     0.500000000  0.000000000  0.000000000
     0.000000000  0.059051798  0.000000000     0.000000000  0.500000000  0.000000000
     0.000000000  0.000000000  0.046837624     0.000000000  0.000000000  1.000000000

  Length of vectors
     0.059051798  0.059051798  0.046837624

  Shift w.r.t. Gamma in fractional coordinates (k-lattice)
     0.000000000  0.000000000  0.000000000

 Subroutine IBZKPT returns following result:

 Found      3 irreducible k-points:

 Following reciprocal coordinates:
            Coordinates               Weight
  0.000000  0.000000  0.000000      1.000000
  0.500000  0.000000  0.000000      2.000000
  0.500000  0.500000  0.000000      1.000000

 Following cartesian coordinates:
            Coordinates               Weight
  0.000000  0.000000  0.000000      1.000000
  0.059052  0.000000  0.000000      2.000000
  0.059052  0.059052  0.000000      1.000000

 SYSTEM =  MgO-rocksalt
 POSCAR =  Mg  O

 Startparameter for this run:
   NWRITE =      2    write-flag & timer
   PREC   = normal    normal or accurate (medium, high low for compatibility)
   ISTART =      0    job   : 0-new  1-cont  2-samecut
   ICHARG =      2    charge: 1-file 2-atom 10-const
   ISPIN  =      1    spin polarized calculation?
   LNONCOLLINEAR =      F non collinear calculations
   LSORBIT =      F    spin-orbit coupling
   INIWAV =      1    electr: 0-lowe 1-rand  2-diag
   LASPH  =      T    aspherical Exc in radial PAW
[...]
      7     -41.6541      2.00000
      8     -41.6541      2.00000
      9     -41.5673      2.00000
     10     -41.5673      2.00000
     11     -41.5673      2.00000
     12     -41.5673      2.00000
     13     -41.5505      2.00000
     14     -41.5505      2.00000
     15     -41.5505      2.00000
     16     -41.5505      2.00000
     17     -41.5439      2.00000
     18     -41.5439      2.00000
     19     -41.5439      2.00000
     20     -41.5439      2.00000
     21     -41.5269      2.00000
     22     -41.5269      2.00000
     23     -41.5269      2.00000
     24     -41.5269      2.00000
     25     -41.4803      2.00000
     26     -41.4803      2.00000
     27     -41.4803      2.00000
     28     -41.4803      2.00000
     29     -41.4766      2.00000
     30     -41.4766      2.00000
     31     -41.4766      2.00000
     32     -41.4766      2.00000
     33     -41.3911      2.00000
     34     -41.3911      2.00000
     35     -41.3911      2.00000
     36     -41.3911      2.00000
     37     -41.3743      2.00000
     38     -41.3743      2.00000
     39     -41.3743      2.00000
     40     -41.3743      2.00000
     41     -41.3675      2.00000
     42     -41.3675      2.00000
     43     -41.3675      2.00000
     44     -41.3675      2.00000
     45     -41.3504      2.00000
     46     -41.3504      2.00000
     47     -41.3504      2.00000
     48     -41.3504      2.00000
     49     -41.0708      2.00000
     50     -41.0708      2.00000
     51     -41.0708      2.00000
     52     -41.0708      2.00000
     53     -41.0543      2.00000
     54     -41.0543      2.00000
     55     -41.0543      2.00000
     56     -41.0543      2.00000
     57     -41.0496      2.00000
     58     -41.0496      2.00000
     59     -41.0496      2.00000
     60     -41.0496      2.00000
[...]
    306       9.1642      0.00000
    307       9.1680      0.00000
    308       9.1686      0.00000
    309       9.2446      0.00000
    310       9.2463      0.00000
    311       9.2469      0.00000
    312       9.2480      0.00000
    313       9.3838      0.00000
    314       9.3838      0.00000
    315       9.3838      0.00000
    316       9.3838      0.00000
    317      10.0273      0.00000
    318      10.0307      0.00000
    319      10.0315      0.00000
    320      10.0322      0.00000

 soft charge-density along one line, spin component           1
         0         1         2         3         4         5         6         7         8         9
 total charge-density along one line

------------------------ aborting loop because EDIFF is reached ----------------------------------------

  Number of pair interactions contributing to vdW energy:  719008
  Edisp (eV):   -3.58215

  FORCE on cell =-STRESS in cart. coord.  units (eV):
  Direction    XX          YY          ZZ          XY          YZ          ZX
  Alpha Z   869.06037   869.06037   869.06037
  Ewald  160150.40884160150.40884************    -0.00000    -0.00000    -0.00000
  Hartree170224.43771170224.43771************    -0.00000    -0.00000    -0.00000
  E(xc)   -2455.59117 -2455.59117 -2460.77377     0.00000    -0.00000     0.00000
  Local  ************************340551.51648    -0.00000     0.00000    -0.00000
  n-local -2812.21482 -2813.08776 -2832.81045     0.00000    -0.00000    -0.00000
  augment  1047.86447  1047.86447  1038.69781     0.00000    -0.00000    -0.00000
  Kinetic  7296.32692  7299.09189  7340.67658    -0.00000     0.00000     0.00000
  Fock        0.00000     0.00000     0.00000     0.00000     0.00000     0.00000
  vdW        -5.22364    -5.22364    -4.25555    -0.00000     0.00000     0.00000
  Total     -29.46797   -29.46797    -2.75419     0.00000     0.00000    -0.00000
  in kB     -30.84480   -30.84480    -2.88287     0.00000     0.00000    -0.00000

 VOLUME and BASIS-vectors are now :
  energy-cutoff  :      600.00
  volume of cell :     1530.66
      direct lattice vectors                 reciprocal lattice vectors
     8.467142631  0.000000000  0.000000000     0.118103597  0.000000000  0.000000000
     0.000000000  8.467142631  0.000000000     0.000000000  0.118103597  0.000000000
     0.000000000  0.000000000 21.350356973     0.000000000  0.000000000  0.046837624

  length of vectors
     8.467142631  8.467142631 21.350356973     0.118103597  0.118103597  0.046837624

 FORCES acting on ions:
    Electron-Ion                     Ewald-Force                    Non-Local-Force
   0.264E-12 -.151E-12 0.205E+04   0.147E-12 0.808E-13 -.205E+04   -.207E-24 0.362E-24 -.703E+01
   0.864E-12 0.235E-13 0.205E+04   0.109E-12 0.355E-13 -.205E+04   0.000E+00 0.414E-24 -.703E+01
   0.364E-12 0.527E-12 0.680E+03   -.148E-10 0.150E-10 -.680E+03   -.910E-23 -.331E-23 0.492E+00
   0.781E-12 -.537E-13 0.680E+03   0.151E-10 -.148E-10 -.680E+03   -.207E-23 -.124E-23 0.492E+00
   0.321E-12 0.671E-13 -.685E+03   -.148E-10 -.149E-10 0.686E+03   -.298E-22 -.265E-22 -.294E+00
   0.783E-12 0.117E-11 -.685E+03   0.149E-10 0.148E-10 0.686E+03   0.711E-25 -.331E-22 -.294E+00
   0.257E-12 0.477E-12 -.204E+04   -.152E-11 0.153E-11 0.203E+04   -.743E-23 -.165E-23 0.606E+01
   0.897E-12 0.282E-12 -.204E+04   0.155E-11 -.152E-11 0.203E+04   0.331E-23 0.000E+00 0.606E+01
   0.266E-12 0.119E-11 0.205E+04   0.152E-11 -.149E-10 -.205E+04   -.620E-24 0.000E+00 -.703E+01
   0.853E-12 0.157E-11 0.205E+04   -.124E-11 0.150E-10 -.205E+04   0.827E-24 0.000E+00 -.703E+01
   0.349E-12 0.108E-11 0.680E+03   -.132E-10 0.164E-10 -.680E+03   -.993E-23 -.827E-24 0.492E+00
   0.780E-12 0.440E-12 0.680E+03   0.136E-10 -.162E-10 -.680E+03   -.827E-24 0.248E-23 0.492E+00
   0.311E-12 0.127E-11 -.685E+03   -.162E-10 -.549E-13 0.686E+03   -.331E-22 -.529E-22 -.294E+00
   0.780E-12 0.406E-12 -.685E+03   0.163E-10 -.888E-13 0.686E+03   0.993E-23 0.207E-22 -.294E+00
   0.251E-12 0.108E-11 -.204E+04   -.303E-11 -.426E-13 0.203E+04   -.496E-23 0.455E-23 0.606E+01
   0.887E-12 0.156E-11 -.204E+04   0.306E-11 -.111E-13 0.203E+04   -.827E-24 0.496E-23 0.606E+01
   0.120E-11 -.164E-12 0.205E+04   -.162E-10 0.736E-13 -.205E+04   0.109E-23 0.103E-24 -.703E+01
   -.368E-13 0.225E-12 0.205E+04   0.165E-10 0.409E-13 -.205E+04   0.207E-24 -.517E-24 -.703E+01
   0.116E-11 0.447E-11 0.680E+03   -.176E-10 0.150E-10 -.680E+03   -.207E-23 0.181E-23 0.492E+00
   -.449E-13 -.604E-13 0.680E+03   0.181E-10 -.148E-10 -.680E+03   0.827E-24 -.827E-24 0.492E+00
   0.118E-11 0.671E-13 -.685E+03   0.146E-11 -.149E-10 0.686E+03   -.199E-22 -.265E-22 -.294E+00
   -.394E-13 0.799E-12 -.685E+03   -.148E-11 0.148E-10 0.686E+03   0.505E-22 0.215E-22 -.294E+00
   0.122E-11 0.162E-11 -.204E+04   0.144E-11 0.150E-11 0.203E+04   0.165E-23 -.331E-23 0.606E+01
   -.306E-13 0.262E-12 -.204E+04   -.164E-11 -.155E-11 0.203E+04   0.103E-23 -.331E-23 0.606E+01
   0.120E-11 -.149E-11 0.205E+04   -.147E-10 -.149E-10 -.205E+04   -.414E-24 0.310E-24 -.703E+01
   -.280E-13 0.116E-11 0.205E+04   0.151E-10 0.150E-10 -.205E+04   -.827E-24 0.724E-24 -.703E+01
   0.118E-11 0.708E-12 0.680E+03   -.162E-10 0.164E-10 -.680E+03   -.538E-23 -.290E-23 0.492E+00
   -.483E-13 0.755E-12 0.680E+03   0.165E-10 -.162E-10 -.680E+03   -.827E-24 0.000E+00 0.492E+00
   0.118E-11 -.415E-11 -.685E+03   0.568E-13 -.568E-13 0.686E+03   0.124E-22 -.397E-22 -.294E+00
   -.420E-13 0.132E-11 -.685E+03   -.286E-13 -.853E-13 0.686E+03   0.265E-22 -.232E-22 -.294E+00
   0.124E-11 0.257E-11 -.204E+04   -.959E-13 -.782E-13 0.203E+04   0.476E-23 -.827E-24 0.606E+01
   -.230E-13 0.111E-11 -.204E+04   -.135E-12 -.389E-13 0.203E+04   0.620E-24 -.165E-23 0.606E+01
   0.138E-12 -.117E-13 0.509E+03   -.152E-12 -.879E-13 -.509E+03   0.827E-24 -.620E-23 -.923E-01
   0.313E-12 0.215E-11 0.509E+03   -.185E-12 -.826E-13 -.509E+03   0.165E-23 0.000E+00 -.923E-01
   0.874E-13 0.477E-12 0.154E+04   0.818E-11 -.846E-11 -.155E+04   0.145E-23 -.595E-24 0.349E+01
   0.364E-12 -.222E-12 0.154E+04   -.857E-11 0.830E-11 -.155E+04   0.414E-24 0.124E-23 0.349E+01
   0.691E-13 -.349E-12 -.155E+04   -.909E-12 -.859E-12 0.156E+04   -.116E-22 0.600E-23 -.513E+01
   0.379E-12 -.369E-11 -.155E+04   0.800E-12 0.788E-12 0.156E+04   -.165E-23 0.159E-22 -.513E+01
   0.125E-12 0.410E-12 -.507E+03   0.568E-13 -.568E-13 0.507E+03   -.132E-22 -.165E-22 0.360E+00
   0.309E-12 0.436E-13 -.507E+03   -.354E-13 0.724E-14 0.507E+03   0.662E-23 -.463E-22 0.360E+00
   0.133E-12 0.597E-12 0.509E+03   -.114E-12 0.743E-11 -.509E+03   0.207E-24 -.165E-23 -.923E-01
   0.303E-12 -.119E-11 0.509E+03   -.163E-12 -.767E-11 -.509E+03   0.372E-23 -.517E-23 -.923E-01
   0.729E-13 0.115E-11 0.154E+04   0.900E-11 -.657E-13 -.155E+04   0.827E-24 0.310E-24 0.349E+01
   0.366E-12 0.201E-13 0.154E+04   -.936E-11 -.262E-13 -.155E+04   0.207E-24 0.620E-24 0.349E+01
   0.480E-13 -.671E-13 -.155E+04   -.164E-11 0.213E-13 0.156E+04   0.248E-23 -.145E-22 -.513E+01
   0.378E-12 0.544E-12 -.155E+04   0.158E-11 -.195E-13 0.156E+04   0.662E-23 -.331E-23 -.513E+01
   0.107E-12 0.520E-12 -.507E+03   -.284E-13 0.426E-13 0.507E+03   0.000E+00 -.620E-23 0.360E+00
   0.294E-12 0.376E-12 -.507E+03   0.583E-13 0.355E-13 0.507E+03   -.414E-24 -.165E-22 0.360E+00
   0.486E-12 0.218E-13 0.509E+03   0.735E-11 -.489E-13 -.509E+03   0.414E-24 -.227E-23 -.923E-01
   -.508E-13 0.248E-12 0.509E+03   -.773E-11 -.355E-13 -.509E+03   -.165E-23 0.620E-23 -.923E-01
   0.482E-12 0.238E-11 0.154E+04   -.997E-12 -.845E-11 -.155E+04   -.145E-23 0.207E-24 0.349E+01
   -.208E-13 -.201E-12 0.154E+04   0.578E-12 0.833E-11 -.155E+04   0.207E-24 0.879E-24 0.349E+01
   0.452E-12 -.416E-12 -.155E+04   0.836E-12 -.818E-12 0.156E+04   -.579E-23 -.116E-22 -.513E+01
   -.458E-13 -.141E-12 -.155E+04   -.851E-12 0.838E-12 0.156E+04   -.579E-23 -.229E-22 -.513E+01
   0.467E-12 0.119E-11 -.507E+03   -.355E-13 -.142E-13 0.507E+03   -.629E-22 0.000E+00 0.360E+00
   -.559E-13 0.302E-13 -.507E+03   0.853E-13 0.703E-13 0.507E+03   -.331E-23 -.827E-23 0.360E+00
   0.489E-12 -.462E-11 0.509E+03   0.740E-11 0.747E-11 -.509E+03   -.207E-23 -.827E-24 -.923E-01
   -.388E-13 0.569E-12 0.509E+03   -.773E-11 -.761E-11 -.509E+03   0.000E+00 -.331E-23 -.923E-01
   0.499E-12 0.157E-11 0.154E+04   -.172E-12 -.222E-13 -.155E+04   0.207E-24 -.124E-23 0.349E+01
   -.204E-13 0.128E-12 0.154E+04   -.188E-12 0.617E-15 -.155E+04   0.620E-24 -.414E-24 0.349E+01
   0.453E-12 -.375E-11 -.155E+04   0.142E-13 0.710E-14 0.156E+04   -.248E-23 0.910E-23 -.513E+01
   -.588E-13 0.114E-12 -.155E+04   0.566E-13 0.284E-13 0.156E+04   0.165E-23 0.120E-22 -.513E+01
   0.482E-12 0.903E-12 -.507E+03   0.782E-13 0.853E-13 0.507E+03   -.364E-22 0.000E+00 0.360E+00
   -.414E-13 0.537E-13 -.507E+03   0.213E-13 0.497E-13 0.507E+03   -.397E-22 0.662E-23 0.360E+00
   0.258E-10 0.193E-10 0.170E+02   -.135E-12 -.231E-12 0.296E-11   -.175E-21 -.273E-21 -.171E+02

 POSITION                                       TOTAL-FORCE (eV/Angst)
      2.11679      0.00000      7.50000        -0.000000     -0.000000      0.391865
      4.23357      2.11679      7.50000        -0.000000     -0.000000      0.391865
      2.11679      2.11679      9.61679        -0.000000     -0.000000      0.020504
      4.23357      0.00000      9.61679         0.000000      0.000000      0.020504
      2.11679     -0.00000     11.74678         0.000000      0.000000     -0.001767
      4.23357      2.11679     11.74678        -0.000000      0.000000     -0.001767
      2.11679      2.11679     13.84639         0.000000     -0.000000     -0.000056
      4.23357      0.00000     13.84639         0.000000     -0.000000     -0.000056
      2.11679      4.23357      7.50000         0.000000     -0.000000      0.391865
      4.23357      6.35036      7.50000         0.000000      0.000000      0.391865
      2.11679      6.35036      9.61679        -0.000000      0.000000      0.020504
      4.23357      4.23357      9.61679         0.000000      0.000000      0.020504
      2.11679      4.23357     11.74678         0.000000      0.000000     -0.001767
      4.23357      6.35036     11.74678        -0.000000      0.000000     -0.001767
      2.11679      6.35036     13.84639         0.000000      0.000000     -0.000056
      4.23357      4.23357     13.84639         0.000000     -0.000000     -0.000056
      6.35036      0.00000      7.50000         0.000000     -0.000000      0.391865
      0.00000      2.11679      7.50000        -0.000000      0.000000      0.391865
      6.35036      2.11679      9.61679         0.000000      0.000000      0.020504
      0.00000      0.00000      9.61679         0.000000      0.000000      0.020504
      6.35036     -0.00000     11.74678        -0.000000     -0.000000     -0.001767
     -0.00000      2.11679     11.74678        -0.000000     -0.000000     -0.001767
      6.35036      2.11679     13.84639         0.000000      0.000000     -0.000056
     -0.00000      0.00000     13.84639         0.000000      0.000000     -0.000056
      6.35036      4.23357      7.50000         0.000000     -0.000000      0.391865
      0.00000      6.35036      7.50000        -0.000000      0.000000      0.391865
      6.35036      6.35036      9.61679         0.000000     -0.000000      0.020504
      0.00000      4.23357      9.61679         0.000000      0.000000      0.020504
      6.35036      4.23357     11.74678         0.000000     -0.000000     -0.001767
      0.00000      6.35036     11.74678        -0.000000     -0.000000     -0.001767
      6.35036      6.35036     13.84639         0.000000      0.000000     -0.000056
     -0.00000      4.23357     13.84639         0.000000     -0.000000     -0.000056
      2.11679      0.00000      9.61679         0.000000      0.000000      0.061187
      4.23357      2.11679      9.61679         0.000000      0.000000      0.061187
      2.11679      2.11679      7.50000         0.000000      0.000000     -0.476043
      4.23357      0.00000      7.50000         0.000000      0.000000     -0.476043
      2.11679     -0.00000     13.89450         0.000000      0.000000     -0.000840
      4.23357      2.11679     13.89450        -0.000000      0.000000     -0.000840
      2.11679      2.11679     11.73874        -0.000000      0.000000      0.005150
      4.23357      0.00000     11.73874         0.000000     -0.000000      0.005150
      2.11679      4.23357      9.61679         0.000000      0.000000      0.061187
      4.23357      6.35036      9.61679         0.000000      0.000000      0.061187
      2.11679      6.35036      7.50000         0.000000      0.000000     -0.476043
      4.23357      4.23357      7.50000        -0.000000      0.000000     -0.476043
      2.11679      4.23357     13.89450        -0.000000     -0.000000     -0.000840
      4.23357      6.35036     13.89450        -0.000000      0.000000     -0.000840
      2.11679      6.35036     11.73874         0.000000     -0.000000      0.005150
      4.23357      4.23357     11.73874         0.000000      0.000000      0.005150
      6.35036      0.00000      9.61679        -0.000000      0.000000      0.061187
      0.00000      2.11679      9.61679         0.000000      0.000000      0.061187
      6.35036      2.11679      7.50000        -0.000000      0.000000     -0.476043
      0.00000      0.00000      7.50000        -0.000000      0.000000     -0.476043
      6.35036     -0.00000     13.89450         0.000000      0.000000     -0.000840
     -0.00000      2.11679     13.89450        -0.000000      0.000000     -0.000840
      6.35036      2.11679     11.73874         0.000000      0.000000      0.005150
     -0.00000      0.00000     11.73874         0.000000     -0.000000      0.005150
      6.35036      4.23357      9.61679        -0.000000      0.000000      0.061187
      0.00000      6.35036      9.61679         0.000000      0.000000      0.061187
      6.35036      6.35036      7.50000        -0.000000     -0.000000     -0.476043
      0.00000      4.23357      7.50000         0.000000     -0.000000     -0.476043
      6.35036      4.23357     13.89450         0.000000     -0.000000     -0.000840
     -0.00000      6.35036     13.89450        -0.000000     -0.000000     -0.000840
      6.35036      6.35036     11.73874         0.000000     -0.000000      0.005150
     -0.00000      4.23357     11.73874        -0.000000     -0.000000      0.005150
    total drift:                                0.000000      0.000000     -0.056471

  FREE ENERGIE OF THE ION-ELECTRON SYSTEM (eV)
  free  energy   TOTEN  =      -375.65326358 eV

  energy  without entropy=     -375.65326358  energy(sigma->0) =     -375.65326358

 d Force = 0.5162793E-04[-0.114E-04, 0.115E-03]  d Energy = 0.5816351E-04-0.654E-05
 d Force =-0.1413607E+02[-0.141E+02,-0.141E+02]  d Ewald  =-0.1413607E+02-0.668E-07

 reached required accuracy - stopping structural energy minimisation