 vasp.6.3.0 20Jan22 (build Apr  1 2022 16:44:48) complex
 executed on        HPECrayEX_GCC date 2022.09.30  22:13:12

 INCAR:
   SYSTEM = MgO-rocksalt
   ISMEAR = 0
   SIGMA = 0.05
   EDIFF = 1E-5
   ALGO = ALL
   ISTART = 0
   IBRION = -1
   NSW = 0
   ISYM = 2
   ISIF = 2
   DIPOL = 0.5 0.5 0.5
   IDIPOL = 3
   LDIPOL = .TRUE.
   GGA = RE
   IVDW = 13
   VDW_S8 = 1.7468
   VDW_A1 = 0.5363
   VDW_A2 = 3.0726
   ENCUT = 600
   PREC = Normal
   LASPH = .TRUE.
   LREAL = .FALSE.
   ISPIN = 1
   NELM = 200
   NELMIN = 8
   NCORE = 4
   KPAR = 2
   LWAVE = .FALSE.
   LCHARG = .FALSE.

 POTCAR:    PAW_PBE Mg_pv 13Apr2007
 POTCAR:    PAW_PBE O 08Apr2002
 POTCAR:    PAW_PBE Mg_pv 13Apr2007
   VRHFIN =Mg: p6s2

   TITEL  = PAW_PBE Mg_pv 13Apr2007
   POMASS =   24.305; ZVAL   =    8.000    mass and valenz
   ENMAX  =  403.929; ENMIN  =  302.947 eV

   TITEL  = PAW_PBE O 08Apr2002
   POMASS =   16.000; ZVAL   =    6.000    mass and valenz
   ENMAX  =  400.000; ENMIN  =  300.000 eV

  PAW_PBE Mg_pv 13Apr2007               :
  PAW_PBE O 08Apr2002                   :

 POSCAR: Mg  O
  positions in direct lattice
|           W    W    AA    RRRRR   N    N  II  N    N   GGGG   !!!           |
|           W    W   A  A   R    R  NN   N  II  NN   N  G    G  !!!           |
|           W    W  A    A  R    R  N N  N  II  N N  N  G       !!!           |
|           W WW W  AAAAAA  RRRRR   N  N N  II  N  N N  G  GGG   !            |
|           WW  WW  A    A  R   R   N   NN  II  N   NN  G    G                |
|           W    W  A    A  R    R  N    N  II  N    N   GGGG   !!!           |
|     Specifying the vdW parameters                                           |
|     VDW_S8 = 1.747                                                          |
|     VDW_A1 = 0.536                                                          |
|     VDW_A2 = 3.073                                                          |
|     in the INCAR file will overwrite the defaults for revpbe. Please        |
|     make sure that is what you intended.                                    |

 ion  position               nearest neighbor table
   1  0.000  0.750  0.352-  33 2.11  35 2.11  36 2.11  43 2.11  52 2.11
   2  0.250  0.000  0.352-  34 2.11  35 2.11  36 2.11  44 2.11  51 2.11
   3  0.000  0.000  0.451-  35 2.11  34 2.11  33 2.11  41 2.11  50 2.11  39 2.12
   4  0.250  0.750  0.451-  36 2.11  34 2.11  33 2.11  42 2.11  49 2.11  40 2.12
   5  0.000  0.750  0.550-  47 2.11  40 2.11  56 2.11  39 2.11  33 2.12  37 2.15
   6  0.250  0.000  0.550-  55 2.11  48 2.11  40 2.11  39 2.11  34 2.12  38 2.15
   7  0.000  0.000  0.649-  37 2.11  38 2.11  45 2.11  54 2.11  39 2.11
   8  0.250  0.750  0.649-  40 2.11  38 2.11  37 2.11  46 2.11  53 2.11
   9  0.000  0.250  0.352-  41 2.11  35 2.11  43 2.11  44 2.11  60 2.11
  10  0.250  0.500  0.352-  42 2.11  36 2.11  43 2.11  44 2.11  59 2.11
  11  0.000  0.500  0.451-  43 2.11  41 2.11  42 2.11  33 2.11  58 2.11  47 2.12
  12  0.250  0.250  0.451-  44 2.11  41 2.11  42 2.11  34 2.11  57 2.11  48 2.12
  13  0.000  0.250  0.550-  47 2.11  48 2.11  64 2.11  39 2.11  41 2.12  45 2.15
  14  0.250  0.500  0.550-  63 2.11  48 2.11  40 2.11  47 2.11  42 2.13  46 2.15
  15  0.000  0.500  0.649-  46 2.10  62 2.10  47 2.11  45 2.11  37 2.11
  16  0.250  0.250  0.649-  48 2.11  45 2.11  38 2.11  46 2.11  61 2.11
  17  0.500  0.750  0.352-  49 2.11  36 2.11  51 2.11  52 2.11  59 2.11
  18  0.750  0.000  0.352-  50 2.11  35 2.11  51 2.11  52 2.11  60 2.11
  19  0.500  0.000  0.451-  51 2.11  49 2.11  50 2.11  34 2.11  57 2.11  55 2.12
  20  0.750  0.750  0.451-  52 2.11  49 2.11  50 2.11  33 2.11  58 2.11  56 2.12
  21  0.500  0.750  0.550-  63 2.11  56 2.11  40 2.11  55 2.11  49 2.13  53 2.15
  22  0.750  0.000  0.550-  55 2.11  56 2.11  64 2.11  39 2.11  50 2.12  54 2.15
  23  0.500  0.000  0.649-  53 2.10  61 2.10  55 2.11  38 2.11  54 2.11
  24  0.750  0.750  0.649-  56 2.11  54 2.11  37 2.11  53 2.11  62 2.11
  25  0.500  0.250  0.352-  57 2.11  51 2.11  44 2.11  59 2.11  60 2.11
  26  0.750  0.500  0.352-  58 2.11  52 2.11  43 2.11  59 2.11  60 2.11
  27  0.500  0.500  0.451-  59 2.11  49 2.11  57 2.11  58 2.11  42 2.11  63 2.13
  28  0.750  0.250  0.451-  60 2.11  50 2.11  57 2.11  58 2.11  41 2.11  64 2.12
  29  0.500  0.250  0.550-  63 2.11  48 2.11  64 2.11  55 2.11  57 2.13  61 2.15
  30  0.750  0.500  0.550-  63 2.11  56 2.11  64 2.11  47 2.11  58 2.13  62 2.15
  31  0.500  0.500  0.651-  46 2.12  53 2.12  61 2.12  62 2.12  63 2.14
  32  0.750  0.250  0.649-  64 2.11  54 2.11  45 2.11  62 2.11  61 2.11
  33  0.000  0.750  0.451-   1 2.11   3 2.11   4 2.11  11 2.11  20 2.11   5 2.12
  34  0.250  0.000  0.451-   2 2.11   3 2.11   4 2.11  12 2.11  19 2.11   6 2.12
  35  0.000  0.000  0.352-   3 2.11   2 2.11   1 2.11   9 2.11  18 2.11
  36  0.250  0.750  0.352-   4 2.11   2 2.11   1 2.11  10 2.11  17 2.11
  37  0.000  0.750  0.651-   7 2.11   8 2.11  24 2.11  15 2.11   5 2.15
  38  0.250  0.000  0.651-   7 2.11   8 2.11  16 2.11  23 2.11   6 2.15
  39  0.000  0.000  0.550-   7 2.11   6 2.11   5 2.11  13 2.11  22 2.11   3 2.12
  40  0.250  0.750  0.550-   8 2.11   6 2.11   5 2.11  14 2.11  21 2.11   4 2.12
  41  0.000  0.250  0.451-   9 2.11   3 2.11  11 2.11  12 2.11  28 2.11  13 2.12
  42  0.250  0.500  0.451-  10 2.11   4 2.11  11 2.11  12 2.11  27 2.11  14 2.13
  43  0.000  0.500  0.352-  11 2.11   9 2.11  10 2.11   1 2.11  26 2.11
  44  0.250  0.250  0.352-  12 2.11   9 2.11  10 2.11   2 2.11  25 2.11
  45  0.000  0.250  0.651-   7 2.11  16 2.11  32 2.11  15 2.11  13 2.15
  46  0.249  0.500  0.651-  15 2.10   8 2.11  16 2.11  31 2.12  14 2.15
  47  0.000  0.500  0.550-  15 2.11  13 2.11   5 2.11  14 2.11  30 2.11  11 2.12
  48  0.250  0.250  0.550-  16 2.11  13 2.11   6 2.11  14 2.11  29 2.11  12 2.12
  49  0.500  0.750  0.451-  17 2.11   4 2.11  19 2.11  20 2.11  27 2.11  21 2.13
  50  0.750  0.000  0.451-  18 2.11   3 2.11  19 2.11  20 2.11  28 2.11  22 2.12
  51  0.500  0.000  0.352-  19 2.11  17 2.11  18 2.11   2 2.11  25 2.11
  52  0.750  0.750  0.352-  20 2.11  17 2.11  18 2.11   1 2.11  26 2.11
  53  0.500  0.751  0.651-  23 2.10   8 2.11  24 2.11  31 2.12  21 2.15
  54  0.750  0.000  0.651-   7 2.11  24 2.11  32 2.11  23 2.11  22 2.15
  55  0.500  0.000  0.550-  23 2.11  22 2.11   6 2.11  21 2.11  29 2.11  19 2.12
  56  0.750  0.750  0.550-  24 2.11  22 2.11   5 2.11  30 2.11  21 2.11  20 2.12
  57  0.500  0.250  0.451-  25 2.11  19 2.11  12 2.11  27 2.11  28 2.11  29 2.13
  58  0.750  0.500  0.451-  26 2.11  20 2.11  11 2.11  27 2.11  28 2.11  30 2.13
  59  0.500  0.500  0.352-  27 2.11  17 2.11  25 2.11  26 2.11  10 2.11
  60  0.750  0.250  0.352-  28 2.11  18 2.11  25 2.11  26 2.11   9 2.11
  61  0.500  0.249  0.651-  23 2.10  16 2.11  32 2.11  31 2.12  29 2.15
  62  0.751  0.500  0.651-  15 2.10  24 2.11  32 2.11  31 2.12  30 2.15
  63  0.500  0.500  0.550-  14 2.11  21 2.11  29 2.11  30 2.11  27 2.13  31 2.14
  64  0.750  0.250  0.550-  32 2.11  22 2.11  13 2.11  30 2.11  29 2.11  28 2.12

  LATTYP: Found a simple tetragonal cell.
 ALAT       =     8.4409846542
 C/A-ratio  =     2.5270438657

  Lattice vectors:

 A1 = (   8.4409846542,   0.0000000000,   0.0000000000)
 A2 = (   0.0000000000,   8.4409846542,   0.0000000000)
 A3 = (   0.0000000000,   0.0000000000,  21.3307384906)

Analysis of symmetry for initial positions (statically):
 Subroutine PRICEL returns:
 Original cell was already a primitive cell.

 Routine SETGRP: Setting up the symmetry group for a
 simple tetragonal supercell.

 Subroutine GETGRP returns: Found  8 space group operations
 (whereof  8 operations were pure point group operations)
 out of a pool of 16 trial point group operations.

The static configuration has the point symmetry C_4v.

Analysis of symmetry for dynamics (positions and initial velocities):
 Subroutine PRICEL returns:
 Original cell was already a primitive cell.

[...]

The dynamic configuration has the point symmetry C_4v.

Analysis of constrained symmetry for selective dynamics:
 Subroutine PRICEL returns:
 Original cell was already a primitive cell.

 Routine SETGRP: Setting up the symmetry group for a
 simple tetragonal supercell.

 Subroutine GETGRP returns: Found  8 space group operations
 (whereof  8 operations were pure point group operations)
 out of a pool of 16 trial point group operations.

The constrained configuration has the point symmetry C_4v.

 Subroutine INISYM returns: Found  8 space group operations
 (whereof  8 operations are pure point group operations),
 and found     1 'primitive' translations

                                     Primitive cell

  volume of cell :    1519.8199

  direct lattice vectors                    reciprocal lattice vectors
     8.440984654  0.000000000  0.000000000     0.118469591  0.000000000  0.000000000
     0.000000000  8.440984654  0.000000000     0.000000000  0.118469591  0.000000000
     0.000000000  0.000000000 21.330738491     0.000000000  0.000000000  0.046880702

  length of vectors
     8.440984654  8.440984654 21.330738491     0.118469591  0.118469591  0.046880702

  position of ions in fractional coordinates (direct lattice)
     0.000000000  0.750000000  0.351605267
     0.250000000  0.000000000  0.351605267
     0.000000000  0.000000000  0.450535089
     0.250000000  0.750000000  0.450535089
     0.000000000  0.749939268  0.550083239
     0.250060732  0.000000000  0.550083239
     0.000000000  0.000000000  0.648745309
     0.249858327  0.750141673  0.648569547
     0.000000000  0.250000000  0.351605267
     0.250000000  0.500000000  0.351605267
     0.000000000  0.500000000  0.450535089
     0.250000000  0.250000000  0.450535089
     0.000000000  0.250060732  0.550083239
     0.250378379  0.500000000  0.550219524
     0.000000000  0.500000000  0.648615280
     0.249858327  0.249858327  0.648569547
     0.500000000  0.750000000  0.351605267
     0.750000000  0.000000000  0.351605267
     0.500000000  0.000000000  0.450535089
     0.750000000  0.750000000  0.450535089
     0.500000000  0.749621621  0.550219524
     0.749939268  0.000000000  0.550083239
     0.500000000  0.000000000  0.648615280
     0.750141673  0.750141673  0.648569547
     0.500000000  0.250000000  0.351605267
     0.750000000  0.500000000  0.351605267
     0.500000000  0.500000000  0.450535089
     0.750000000  0.250000000  0.450535089
     0.500000000  0.250378379  0.550219524
     0.749621621  0.500000000  0.550219524
     0.500000000  0.500000000  0.650616960
     0.750141673  0.249858327  0.648569547
     0.000000000  0.750000000  0.450535089
     0.250000000  0.000000000  0.450535089
     0.000000000  0.000000000  0.351605267
     0.250000000  0.750000000  0.351605267
     0.000000000  0.750218533  0.650979255
     0.249781467  0.000000000  0.650979255
     0.000000000  0.000000000  0.549809890
     0.249945770  0.750054230  0.549859113
     0.000000000  0.250000000  0.450535089
     0.250000000  0.500000000  0.450535089
     0.000000000  0.500000000  0.351605267
     0.250000000  0.250000000  0.351605267
     0.000000000  0.249781467  0.650979255
     0.248822710  0.500000000  0.650882872
     0.000000000  0.500000000  0.549762666
[...]

[...]

 k-point     3 :       0.5000    0.5000    0.0000
  band No.  band energies     occupation
      1     -41.5046      2.00000
      2     -41.5045      2.00000
      3     -41.5045      2.00000
      4     -41.5045      2.00000
      5     -41.5009      2.00000
      6     -41.5008      2.00000
      7     -41.5008      2.00000
      8     -41.5008      2.00000
      9     -41.4607      2.00000
     10     -41.4098      2.00000
     11     -41.4098      2.00000
     12     -41.4098      2.00000
     13     -41.4098      2.00000
     14     -41.3928      2.00000
     15     -41.3928      2.00000
     16     -41.3928      2.00000
     17     -41.3927      2.00000
     18     -41.3858      2.00000
     19     -41.3858      2.00000
     20     -41.3858      2.00000
     21     -41.3858      2.00000
     22     -41.3685      2.00000
     23     -41.3685      2.00000
     24     -41.3685      2.00000
     25     -41.3685      2.00000
     26     -41.3438      2.00000
     27     -41.3438      2.00000
     28     -41.3210      2.00000
     29     -41.3210      2.00000
     30     -41.3210      2.00000
     31     -41.3209      2.00000
     32     -41.2948      2.00000
     33     -41.2948      2.00000
     34     -41.2948      2.00000
     35     -41.2192      2.00000
     36     -41.2190      2.00000
     37     -41.2142      2.00000
     38     -41.2142      2.00000
     39     -41.2095      2.00000
     40     -41.2095      2.00000
     41     -41.2075      2.00000
     42     -41.2075      2.00000
     43     -41.1820      2.00000
     44     -41.1808      2.00000
     45     -41.1745      2.00000
     46     -41.1745      2.00000
     47     -41.1706      2.00000
     48     -41.1696      2.00000
     49     -40.9078      2.00000
     50     -40.9076      2.00000
     51     -40.9075      2.00000
     52     -40.9075      2.00000
     53     -40.8925      2.00000
     54     -40.8913      2.00000
     55     -40.8910      2.00000
     56     -40.8910      2.00000
     57     -40.8888      2.00000
     58     -40.8888      2.00000
     59     -40.8880      2.00000
     60     -40.8868      2.00000
[...]
    306       9.8709      0.00000
    307       9.8833      0.00000
    308       9.8872      0.00000
    309       9.8943      0.00000
    310       9.9008      0.00000
    311       9.9062      0.00000
    312       9.9139      0.00000
    313       9.9371      0.00000
    314      10.0213      0.00000
    315      10.1259      0.00000
    316      10.3540      0.00000
    317      10.4624      0.00000
    318      10.4786      0.00000
    319      10.4790      0.00000
    320      10.4793      0.00000

 soft charge-density along one line, spin component           1
         0         1         2         3         4         5         6         7         8         9
 total charge-density along one line

------------------------ aborting loop because EDIFF is reached ----------------------------------------

  FORCE on cell =-STRESS in cart. coord.  units (eV):
  Direction    XX          YY          ZZ          XY          YZ          ZX
  Alpha Z   875.25928   875.25928   875.25928
  Ewald  161112.87060161112.87060************     0.00000     0.00000    -0.00000
  Hartree171188.80709171188.80709************    -0.00000    -0.00000    -0.00000
  E(xc)   -2465.28987 -2465.28987 -2473.59540    -0.00000    -0.00000     0.00000
  Local  ************************342565.58370    -0.00000     0.00000    -0.00000
  n-local -2794.70315 -2795.51943 -2816.15225    -0.00000     0.00001    -0.00000
  augment  1046.60122  1046.60121  1036.90369     0.00000     0.00000    -0.00000
  Kinetic  7308.02991  7310.63710  7349.46783     0.00003    -0.00006     0.00000
  Fock        0.00000     0.00000     0.00000     0.00000     0.00000     0.00000
  vdW       -21.48523   -21.48525   -16.14747    -0.00000    -0.00000    -0.00000
  Total     -26.38716   -26.38716    -1.72048     0.00000     0.00000     0.00000
  in kB     -27.81706   -27.81706    -1.81371     0.00000     0.00000     0.00000

 VOLUME and BASIS-vectors are now :
  energy-cutoff  :      600.00
  volume of cell :     1519.82
      direct lattice vectors                 reciprocal lattice vectors
     8.440984654  0.000000000  0.000000000     0.118469591  0.000000000  0.000000000
     0.000000000  8.440984654  0.000000000     0.000000000  0.118469591  0.000000000
     0.000000000  0.000000000 21.330738491     0.000000000  0.000000000  0.046880702

  length of vectors
     8.440984654  8.440984654 21.330738491     0.118469591  0.118469591  0.046880702

 FORCES acting on ions:
    Electron-Ion                     Ewald-Force                    Non-Local-Force
   -.356E-13 0.762E-01 0.207E+04   0.560E-13 -.754E-01 -.206E+04   0.000E+00 -.528E-03 -.716E+01
   -.762E-01 -.438E-13 0.207E+04   0.754E-01 0.671E-13 -.206E+04   0.528E-03 0.529E-22 -.716E+01
   -.596E-13 0.108E-12 0.684E+03   -.150E-10 0.150E-10 -.684E+03   0.496E-23 0.000E+00 0.488E+00
   -.439E+00 0.439E+00 0.683E+03   0.441E+00 -.441E+00 -.684E+03   -.990E-03 0.990E-03 0.525E+00
   -.676E-13 0.276E+00 -.690E+03   0.157E-11 -.271E+00 0.690E+03   0.529E-22 0.112E-02 -.193E+00
   -.276E+00 -.360E-12 -.690E+03   0.271E+00 -.151E-11 0.690E+03   -.112E-02 0.000E+00 -.193E+00
   -.339E-13 0.859E-12 -.205E+04   0.444E-12 -.416E-12 0.204E+04   0.529E-22 0.000E+00 0.605E+01
   -.136E+01 0.136E+01 -.205E+04   0.121E+01 -.121E+01 0.204E+04   0.131E+00 -.131E+00 0.611E+01
   -.282E-13 -.762E-01 0.207E+04   -.277E-12 0.754E-01 -.206E+04   -.106E-21 0.528E-03 -.716E+01
   -.114E+00 0.960E-12 0.207E+04   0.116E+00 0.131E-10 -.206E+04   -.147E-02 -.106E-21 -.716E+01
   -.559E-13 0.121E-11 0.683E+03   -.165E-10 0.000E+00 -.684E+03   0.662E-23 0.000E+00 0.469E+00
   -.439E+00 -.439E+00 0.683E+03   0.441E+00 0.441E+00 -.684E+03   -.990E-03 -.990E-03 0.525E+00
   -.695E-13 -.276E+00 -.690E+03   0.304E-11 0.271E+00 0.690E+03   0.596E-22 -.112E-02 -.193E+00
   -.164E+01 0.650E-12 -.691E+03   0.172E+01 0.178E-14 0.692E+03   -.824E-01 0.529E-22 -.252E+00
   -.437E-13 0.102E-11 -.205E+04   -.355E-13 -.995E-13 0.204E+04   0.000E+00 0.000E+00 0.602E+01
   -.136E+01 -.136E+01 -.205E+04   0.121E+01 0.121E+01 0.204E+04   0.131E+00 0.131E+00 0.611E+01
   0.908E-12 0.114E+00 0.207E+04   -.129E-10 -.116E+00 -.206E+04   0.318E-21 0.147E-02 -.716E+01
   0.762E-01 -.114E-12 0.207E+04   -.754E-01 0.471E-13 -.206E+04   -.528E-03 -.529E-22 -.716E+01
   0.827E-12 0.185E-12 0.683E+03   0.145E-11 0.150E-10 -.684E+03   0.000E+00 0.265E-22 0.469E+00
   0.439E+00 0.439E+00 0.683E+03   -.441E+00 -.441E+00 -.684E+03   0.990E-03 0.990E-03 0.525E+00
   0.806E-12 0.164E+01 -.691E+03   -.141E-11 -.172E+01 0.692E+03   -.529E-22 0.824E-01 -.252E+00
   0.276E+00 -.377E-12 -.690E+03   -.271E+00 -.156E-11 0.690E+03   0.112E-02 0.000E+00 -.193E+00
   0.918E-12 -.131E-12 -.205E+04   0.782E-13 -.355E-14 0.204E+04   0.215E-22 0.000E+00 0.602E+01
   0.136E+01 0.136E+01 -.205E+04   -.121E+01 -.121E+01 0.204E+04   -.131E+00 -.131E+00 0.611E+01
   0.910E-12 -.114E+00 0.207E+04   -.131E-10 0.116E+00 -.206E+04   0.106E-21 -.147E-02 -.716E+01
   0.114E+00 0.488E-12 0.207E+04   -.116E+00 0.131E-10 -.206E+04   0.147E-02 0.265E-22 -.716E+01
   0.826E-12 0.150E-11 0.681E+03   -.782E-13 0.355E-14 -.682E+03   0.000E+00 0.662E-22 0.619E+00
   0.439E+00 -.439E+00 0.683E+03   -.441E+00 0.441E+00 -.684E+03   0.990E-03 -.990E-03 0.525E+00
   0.804E-12 -.164E+01 -.691E+03   -.284E-13 0.172E+01 0.692E+03   -.265E-22 -.824E-01 -.252E+00
   0.164E+01 -.219E-11 -.691E+03   -.172E+01 0.000E+00 0.692E+03   0.824E-01 0.529E-22 -.252E+00
   0.941E-12 0.939E-12 -.207E+04   -.426E-13 -.391E-13 0.206E+04   0.000E+00 -.265E-22 0.646E+01
   0.136E+01 -.136E+01 -.205E+04   -.121E+01 0.121E+01 0.204E+04   -.131E+00 0.131E+00 0.611E+01
   -.484E-13 0.176E+00 0.512E+03   0.409E-13 -.177E+00 -.512E+03   -.265E-22 0.132E-02 -.944E-01
   -.176E+00 -.219E-13 0.512E+03   0.177E+00 0.391E-13 -.512E+03   -.132E-02 0.000E+00 -.944E-01
   -.583E-13 0.121E-11 0.155E+04   0.853E-11 -.844E-11 -.156E+04   0.000E+00 0.529E-22 0.341E+01
   -.724E-01 0.724E-01 0.155E+04   0.725E-01 -.725E-01 -.156E+04   -.610E-04 0.610E-04 0.341E+01
   -.317E-13 0.423E+00 -.156E+04   -.871E-12 -.450E+00 0.156E+04   0.000E+00 0.124E-01 -.505E+01
   -.423E+00 -.633E-12 -.156E+04   0.450E+00 0.881E-12 0.156E+04   -.124E-01 -.265E-22 -.505E+01
   -.766E-13 0.224E-12 -.512E+03   -.853E-13 0.639E-13 0.511E+03   0.993E-23 0.000E+00 0.225E+00
   -.697E+00 0.697E+00 -.511E+03   0.687E+00 -.687E+00 0.511E+03   0.182E-01 -.182E-01 0.327E+00
   -.646E-13 -.176E+00 0.512E+03   0.142E-13 0.177E+00 -.512E+03   0.000E+00 -.132E-02 -.944E-01
   -.413E+00 0.670E-12 0.511E+03   0.385E+00 -.764E-11 -.511E+03   0.392E-01 -.529E-22 -.107E+00
   -.567E-13 0.176E-11 0.155E+04   0.845E-11 -.796E-12 -.156E+04   0.000E+00 -.159E-21 0.341E+01
   -.724E-01 -.724E-01 0.155E+04   0.725E-01 0.725E-01 -.156E+04   -.610E-04 -.610E-04 0.341E+01
   -.474E-13 -.423E+00 -.156E+04   -.774E-12 0.450E+00 0.156E+04   -.265E-22 -.124E-01 -.505E+01
   -.307E+01 0.721E-12 -.156E+04   0.301E+01 0.810E-11 0.156E+04   0.200E+00 0.000E+00 -.473E+01
   -.526E-13 0.283E-12 -.511E+03   -.741E-11 0.711E-14 0.510E+03   0.000E+00 0.000E+00 0.308E+00
   -.697E+00 -.697E+00 -.511E+03   0.687E+00 0.687E+00 0.511E+03   0.182E-01 0.182E-01 0.327E+00
   0.307E-12 0.413E+00 0.511E+03   0.764E-11 -.385E+00 -.511E+03   0.000E+00 -.392E-01 -.107E+00
   0.176E+00 -.185E-13 0.512E+03   -.177E+00 0.142E-13 -.512E+03   0.132E-02 0.000E+00 -.944E-01
   0.370E-12 -.182E-12 0.155E+04   0.845E-12 -.846E-11 -.156E+04   -.106E-21 0.000E+00 0.341E+01
   0.724E-01 0.724E-01 0.155E+04   -.725E-01 -.725E-01 -.156E+04   0.610E-04 0.610E-04 0.341E+01
   0.363E-12 0.307E+01 -.156E+04   -.816E-11 -.301E+01 0.156E+04   0.000E+00 -.200E+00 -.473E+01
   0.423E+00 -.700E-12 -.156E+04   -.450E+00 0.924E-12 0.156E+04   0.124E-01 -.106E-21 -.505E+01
   0.317E-12 0.273E-12 -.511E+03   -.711E-14 0.738E-11 0.510E+03   -.331E-23 0.000E+00 0.308E+00
   0.697E+00 0.697E+00 -.511E+03   -.687E+00 -.687E+00 0.511E+03   -.182E-01 -.182E-01 0.327E+00
   0.318E-12 -.413E+00 0.511E+03   0.763E-11 0.385E+00 -.511E+03   0.232E-22 0.392E-01 -.107E+00
   0.413E+00 0.135E-11 0.511E+03   -.385E+00 -.769E-11 -.511E+03   -.392E-01 -.265E-22 -.107E+00
   0.360E-12 0.741E-13 0.155E+04   0.824E-12 -.838E-12 -.156E+04   0.000E+00 0.000E+00 0.341E+01
   0.724E-01 -.724E-01 0.155E+04   -.725E-01 0.725E-01 -.156E+04   0.610E-04 -.610E-04 0.341E+01
   0.371E-12 -.307E+01 -.156E+04   -.820E-11 0.301E+01 0.156E+04   0.000E+00 0.200E+00 -.473E+01
   0.307E+01 -.170E-11 -.156E+04   -.301E+01 0.819E-11 0.156E+04   -.200E+00 0.000E+00 -.473E+01
   0.303E-12 0.483E-12 -.520E+03   -.497E-13 0.426E-13 0.520E+03   0.000E+00 0.000E+00 -.122E+00
   0.697E+00 -.697E+00 -.511E+03   -.687E+00 0.687E+00 0.511E+03   -.182E-01 0.182E-01 0.327E+00
   0.266E-10 0.248E-10 0.165E+02   0.178E-12 -.744E-13 0.296E-11   -.902E-16 -.312E-16 -.165E+02

 POSITION                                       TOTAL-FORCE (eV/Angst)
      0.00000      6.33074      7.50000        -0.000000      0.000225      0.336183
      2.11025      0.00000      7.50000        -0.000225     -0.000000      0.336183
      0.00000      0.00000      9.61025        -0.000000     -0.000000      0.073094
      2.11025      6.33074      9.61025         0.000700     -0.000700      0.072402
      0.00000      6.33023     11.73368        -0.000000      0.005817      0.006580
      2.11076      0.00000     11.73368        -0.005817     -0.000000      0.006580
      0.00000      0.00000     13.83822        -0.000000     -0.000000      0.017799
      2.10905      6.33193     13.83447        -0.023897      0.023897      0.029000
      0.00000      2.11025      7.50000        -0.000000     -0.000225      0.336183
      2.11025      4.22049      7.50000         0.000237     -0.000000      0.335754
      0.00000      4.22049      9.61025        -0.000000     -0.000000      0.077960
      2.11025      2.11025      9.61025         0.000700      0.000700      0.072402
      0.00000      2.11076     11.73368        -0.000000     -0.005817      0.006580
      2.11344      4.22049     11.73659        -0.005852     -0.000000     -0.003941
      0.00000      4.22049     13.83544        -0.000000     -0.000000      0.033662
      2.10905      2.10905     13.83447        -0.023897     -0.023897      0.029000
      4.22049      6.33074      7.50000        -0.000000     -0.000237      0.335754
      6.33074      0.00000      7.50000         0.000225     -0.000000      0.336183
      4.22049      0.00000      9.61025        -0.000000     -0.000000      0.077960
      6.33074      6.33074      9.61025        -0.000700     -0.000700      0.072402
      4.22049      6.32754     11.73659        -0.000000      0.005852     -0.003941
      6.33023      0.00000     11.73368         0.005817     -0.000000      0.006580
      4.22049      0.00000     13.83544        -0.000000     -0.000000      0.033662
      6.33193      6.33193     13.83447         0.023897      0.023897      0.029000
      4.22049      2.11025      7.50000        -0.000000      0.000237      0.335754
      6.33074      4.22049      7.50000        -0.000237     -0.000000      0.335754
      4.22049      4.22049      9.61025        -0.000000     -0.000000      0.080727
      6.33074      2.11025      9.61025        -0.000700      0.000700      0.072402
      4.22049      2.11344     11.73659        -0.000000     -0.005852     -0.003941
      6.32754      4.22049     11.73659         0.005852     -0.000000     -0.003941
      4.22049      4.22049     13.87814        -0.000000     -0.000000     -0.267981
      6.33193      2.10905     13.83447         0.023897     -0.023897      0.029000
      0.00000      6.33074      9.61025        -0.000000      0.000650      0.076140
      2.11025      0.00000      9.61025        -0.000650     -0.000000      0.076140
      0.00000      0.00000      7.50000        -0.000000     -0.000000     -0.501135
      2.11025      6.33074      7.50000        -0.000029      0.000029     -0.500681
      0.00000      6.33258     13.88587        -0.000000     -0.013799     -0.025860
      2.10840      0.00000     13.88587         0.013799     -0.000000     -0.025860
      0.00000      0.00000     11.72785        -0.000000     -0.000000     -0.003241
      2.10979      6.33120     11.72890         0.008028     -0.008028     -0.004502
      0.00000      2.11025      9.61025        -0.000000     -0.000650      0.076140
      2.11025      4.22049      9.61025         0.010237     -0.000000      0.087272
      0.00000      4.22049      7.50000        -0.000000     -0.000000     -0.500677
      2.11025      2.11025      7.50000        -0.000029     -0.000029     -0.500681
      0.00000      2.10840     13.88587        -0.000000      0.013799     -0.025860
      2.10031      4.22049     13.88381         0.139802     -0.000000      0.053386
      0.00000      4.22049     11.72684        -0.000000     -0.000000      0.010973
      2.10979      2.10979     11.72890         0.008028      0.008028     -0.004502
      4.22049      6.33074      9.61025        -0.000000     -0.010237      0.087272
      6.33074      0.00000      9.61025         0.000650     -0.000000      0.076140
      4.22049      0.00000      7.50000        -0.000000     -0.000000     -0.500677
      6.33074      6.33074      7.50000         0.000029      0.000029     -0.500681
      4.22049      6.34068     13.88381        -0.000000     -0.139802      0.053386
      6.33258      0.00000     13.88587        -0.013799     -0.000000     -0.025860
      4.22049      0.00000     11.72684        -0.000000     -0.000000      0.010973
      6.33120      6.33120     11.72890        -0.008028     -0.008028     -0.004502
      4.22049      2.11025      9.61025        -0.000000      0.010237      0.087272
      6.33074      4.22049      9.61025        -0.010237     -0.000000      0.087272
      4.22049      4.22049      7.50000        -0.000000     -0.000000     -0.501098
      6.33074      2.11025      7.50000         0.000029     -0.000029     -0.500681
      4.22049      2.10031     13.88381        -0.000000      0.139802      0.053386
      6.34068      4.22049     13.88381        -0.139802     -0.000000      0.053386
      4.22049      4.22049     11.73684        -0.000000     -0.000000      0.011068
      6.33120      2.10979     11.72890        -0.008028      0.008028     -0.004502
    total drift:                                0.000000      0.000000     -0.029928

  FREE ENERGIE OF THE ION-ELECTRON SYSTEM (eV)
  free  energy   TOTEN  =      -371.28708900 eV

  energy  without entropy=     -371.28708900  energy(sigma->0) =     -371.28708900