 vasp.6.3.0 20Jan22 (build Apr  1 2022 16:44:48) complex
 executed on        HPECrayEX_GCC date 2022.09.24  18:10:48

 INCAR:
   SYSTEM = MgO-rocksalt
   ISMEAR = 0
   SIGMA = 0.05
   EDIFF = 1E-6
   ALGO = ALL
   ISTART = 0
   IBRION = 2
   NSW = 1000
   ISYM = 2
   ISIF = 2
   EDIFFG = -0.01
   DIPOL = 0.5 0.5 0.5
   IDIPOL = 3
   LDIPOL = .TRUE.
   GGA = RE
   IVDW = 13
   VDW_S8 = 1.7468
   VDW_A1 = 0.5363
   VDW_A2 = 3.0726
   ENCUT = 600
   PREC = Normal
   LASPH = .TRUE.
   LREAL = .FALSE.
   ISPIN = 1
   NELM = 200
   NELMIN = 8
   NCORE = 4
   KPAR = 2
   LWAVE = .FALSE.
   LCHARG = .FALSE.

 POTCAR:    PAW_PBE Mg_pv 13Apr2007
 POTCAR:    PAW_PBE O 08Apr2002
 POTCAR:    PAW_PBE Mg_pv 13Apr2007
   VRHFIN =Mg: p6s2

   TITEL  = PAW_PBE Mg_pv 13Apr2007
   POMASS =   24.305; ZVAL   =    8.000    mass and valenz
   ENMAX  =  403.929; ENMIN  =  302.947 eV

   TITEL  = PAW_PBE O 08Apr2002
   POMASS =   16.000; ZVAL   =    6.000    mass and valenz
   ENMAX  =  400.000; ENMIN  =  300.000 eV

  PAW_PBE Mg_pv 13Apr2007               :
  PAW_PBE O 08Apr2002                   :

 POSCAR: Mg  O
  positions in direct lattice
|           W    W    AA    RRRRR   N    N  II  N    N   GGGG   !!!           |
|           W    W   A  A   R    R  NN   N  II  NN   N  G    G  !!!           |
|           W    W  A    A  R    R  N N  N  II  N N  N  G       !!!           |
|           W WW W  AAAAAA  RRRRR   N  N N  II  N  N N  G  GGG   !            |
|           WW  WW  A    A  R   R   N   NN  II  N   NN  G    G                |
|           W    W  A    A  R    R  N    N  II  N    N   GGGG   !!!           |
|     Specifying the vdW parameters                                           |
|     VDW_S8 = 1.747                                                          |
|     VDW_A1 = 0.536                                                          |
|     VDW_A2 = 3.073                                                          |
|     in the INCAR file will overwrite the defaults for revpbe. Please        |
|     make sure that is what you intended.                                    |

 ion  position               nearest neighbor table
   1  0.000  0.750  0.352-  33 2.11  35 2.11  36 2.11  43 2.11  52 2.11
   2  0.250  0.000  0.352-  34 2.11  35 2.11  36 2.11  44 2.11  51 2.11
   3  0.000  0.000  0.451-  35 2.11  34 2.11  33 2.11  41 2.11  50 2.11  39 2.11
   4  0.250  0.750  0.451-  36 2.11  34 2.11  33 2.11  42 2.11  49 2.11  40 2.11
   5  0.000  0.750  0.549-  37 2.11  39 2.11  40 2.11  47 2.11  56 2.11  33 2.11
   6  0.250  0.000  0.549-  38 2.11  39 2.11  40 2.11  48 2.11  55 2.11  34 2.11
   7  0.000  0.000  0.648-  39 2.11  38 2.11  37 2.11  45 2.11  54 2.11
   8  0.250  0.750  0.648-  40 2.11  38 2.11  37 2.11  46 2.11  53 2.11
   9  0.000  0.250  0.352-  41 2.11  35 2.11  43 2.11  44 2.11  60 2.11
  10  0.250  0.500  0.352-  42 2.11  36 2.11  43 2.11  44 2.11  59 2.11
  11  0.000  0.500  0.451-  43 2.11  41 2.11  42 2.11  33 2.11  58 2.11  47 2.11
  12  0.250  0.250  0.451-  44 2.11  41 2.11  42 2.11  34 2.11  57 2.11  48 2.11
  13  0.000  0.250  0.549-  45 2.11  39 2.11  47 2.11  48 2.11  64 2.11  41 2.11
  14  0.250  0.500  0.549-  46 2.11  40 2.11  47 2.11  48 2.11  63 2.11  42 2.11
  15  0.000  0.500  0.648-  47 2.11  45 2.11  46 2.11  37 2.11  62 2.11
  16  0.250  0.250  0.648-  48 2.11  45 2.11  46 2.11  38 2.11  61 2.11
  17  0.500  0.750  0.352-  49 2.11  36 2.11  51 2.11  52 2.11  59 2.11
  18  0.750  0.000  0.352-  50 2.11  35 2.11  51 2.11  52 2.11  60 2.11
  19  0.500  0.000  0.451-  51 2.11  49 2.11  50 2.11  34 2.11  57 2.11  55 2.11
  20  0.750  0.750  0.451-  52 2.11  49 2.11  50 2.11  33 2.11  58 2.11  56 2.11
  21  0.500  0.750  0.549-  53 2.11  40 2.11  55 2.11  56 2.11  63 2.11  49 2.11
  22  0.750  0.000  0.549-  54 2.11  39 2.11  55 2.11  56 2.11  64 2.11  50 2.11
  23  0.500  0.000  0.648-  55 2.11  53 2.11  54 2.11  38 2.11  61 2.11
  24  0.750  0.750  0.648-  56 2.11  53 2.11  54 2.11  37 2.11  62 2.11
  25  0.500  0.250  0.352-  57 2.11  51 2.11  44 2.11  59 2.11  60 2.11
  26  0.750  0.500  0.352-  58 2.11  52 2.11  43 2.11  59 2.11  60 2.11
  27  0.500  0.500  0.451-  59 2.11  49 2.11  57 2.11  58 2.11  42 2.11  63 2.11
  28  0.750  0.250  0.451-  60 2.11  50 2.11  57 2.11  58 2.11  41 2.11  64 2.11
  29  0.500  0.250  0.549-  61 2.11  55 2.11  48 2.11  63 2.11  64 2.11  57 2.11
  30  0.750  0.500  0.549-  62 2.11  56 2.11  47 2.11  63 2.11  64 2.11  58 2.11
  31  0.500  0.500  0.648-  63 2.11  53 2.11  61 2.11  62 2.11  46 2.11
  32  0.750  0.250  0.648-  64 2.11  54 2.11  61 2.11  62 2.11  45 2.11
  33  0.000  0.750  0.451-   1 2.11   3 2.11   4 2.11  11 2.11  20 2.11   5 2.11
  34  0.250  0.000  0.451-   2 2.11   3 2.11   4 2.11  12 2.11  19 2.11   6 2.11
  35  0.000  0.000  0.352-   3 2.11   2 2.11   1 2.11   9 2.11  18 2.11
  36  0.250  0.750  0.352-   4 2.11   2 2.11   1 2.11  10 2.11  17 2.11
  37  0.000  0.750  0.648-   5 2.11   7 2.11   8 2.11  15 2.11  24 2.11
  38  0.250  0.000  0.648-   6 2.11   7 2.11   8 2.11  16 2.11  23 2.11
  39  0.000  0.000  0.549-   7 2.11   6 2.11   5 2.11  13 2.11  22 2.11   3 2.11
  40  0.250  0.750  0.549-   8 2.11   6 2.11   5 2.11  14 2.11  21 2.11   4 2.11
  41  0.000  0.250  0.451-   9 2.11   3 2.11  11 2.11  12 2.11  28 2.11  13 2.11
  42  0.250  0.500  0.451-  10 2.11   4 2.11  11 2.11  12 2.11  27 2.11  14 2.11
  43  0.000  0.500  0.352-  11 2.11   9 2.11  10 2.11   1 2.11  26 2.11
  44  0.250  0.250  0.352-  12 2.11   9 2.11  10 2.11   2 2.11  25 2.11
  45  0.000  0.250  0.648-  13 2.11   7 2.11  15 2.11  16 2.11  32 2.11
  46  0.250  0.500  0.648-  14 2.11   8 2.11  15 2.11  16 2.11  31 2.11
  47  0.000  0.500  0.549-  15 2.11  13 2.11  14 2.11   5 2.11  30 2.11  11 2.11
  48  0.250  0.250  0.549-  16 2.11  13 2.11  14 2.11   6 2.11  29 2.11  12 2.11
  49  0.500  0.750  0.451-  17 2.11   4 2.11  19 2.11  20 2.11  27 2.11  21 2.11
  50  0.750  0.000  0.451-  18 2.11   3 2.11  19 2.11  20 2.11  28 2.11  22 2.11
  51  0.500  0.000  0.352-  19 2.11  17 2.11  18 2.11   2 2.11  25 2.11
  52  0.750  0.750  0.352-  20 2.11  17 2.11  18 2.11   1 2.11  26 2.11
  53  0.500  0.750  0.648-  21 2.11   8 2.11  23 2.11  24 2.11  31 2.11
  54  0.750  0.000  0.648-  22 2.11   7 2.11  23 2.11  24 2.11  32 2.11
  55  0.500  0.000  0.549-  23 2.11  21 2.11  22 2.11   6 2.11  29 2.11  19 2.11
  56  0.750  0.750  0.549-  24 2.11  21 2.11  22 2.11   5 2.11  30 2.11  20 2.11
  57  0.500  0.250  0.451-  25 2.11  19 2.11  12 2.11  27 2.11  28 2.11  29 2.11
  58  0.750  0.500  0.451-  26 2.11  20 2.11  11 2.11  27 2.11  28 2.11  30 2.11
  59  0.500  0.500  0.352-  27 2.11  17 2.11  25 2.11  26 2.11  10 2.11
  60  0.750  0.250  0.352-  28 2.11  18 2.11  25 2.11  26 2.11   9 2.11
  61  0.500  0.250  0.648-  29 2.11  23 2.11  16 2.11  31 2.11  32 2.11
  62  0.750  0.500  0.648-  30 2.11  24 2.11  15 2.11  31 2.11  32 2.11
  63  0.500  0.500  0.549-  31 2.11  21 2.11  29 2.11  30 2.11  14 2.11  27 2.11
  64  0.750  0.250  0.549-  32 2.11  22 2.11  29 2.11  30 2.11  13 2.11  28 2.11

  LATTYP: Found a simple tetragonal cell.
 ALAT       =     8.4409846542
 C/A-ratio  =     2.5270438657

  Lattice vectors:

 A1 = (   8.4409846542,   0.0000000000,   0.0000000000)
 A2 = (   0.0000000000,   8.4409846542,   0.0000000000)
 A3 = (   0.0000000000,   0.0000000000,  21.3307384906)

Analysis of symmetry for initial positions (statically):
 Subroutine PRICEL returns following result:

[...]

   8 primitive cells build up your supercell.

 Routine SETGRP: Setting up the symmetry group for a
 simple tetragonal supercell.

 Subroutine GETGRP returns: Found 16 space group operations
 (whereof  8 operations were pure point group operations)
 out of a pool of 16 trial point group operations.

The static configuration has the point symmetry C_4v.
 The point group associated with its full space group is D_4h.

Analysis of symmetry for dynamics (positions and initial velocities):
 Subroutine PRICEL returns following result:

[...]

The dynamic configuration has the point symmetry C_4v.
 The point group associated with its full space group is D_4h.

Analysis of constrained symmetry for selective dynamics:
 Subroutine PRICEL returns following result:

  LATTYP: Found a simple tetragonal cell.
 ALAT       =     2.9843387444
 C/A-ratio  =     7.1475594151

  Lattice vectors:

 A1 = (   2.1102461635,  -2.1102461635,   0.0000000000)
 A2 = (   2.1102461635,   2.1102461635,   0.0000000000)
 A3 = (   0.0000000000,   0.0000000000,  21.3307384906)

   8 primitive cells build up your supercell.

 Routine SETGRP: Setting up the symmetry group for a
 simple tetragonal supercell.

 Subroutine GETGRP returns: Found  8 space group operations
 (whereof  8 operations were pure point group operations)
 out of a pool of 16 trial point group operations.

The constrained configuration has the point symmetry C_4v.

 Subroutine INISYM returns: Found  8 space group operations
 (whereof  8 operations are pure point group operations),
 and found     8 'primitive' translations

                                     Primitive cell

  volume of cell :     189.9775

  direct lattice vectors                    reciprocal lattice vectors
     2.110246164 -2.110246164  0.000000000     0.236939182 -0.236939182  0.000000000
     2.110246164  2.110246164  0.000000000     0.236939182  0.236939182 -0.000000000
     0.000000000  0.000000000 21.330738491    -0.000000000  0.000000000  0.046880702

  length of vectors
     2.984338744  2.984338744 21.330738491     0.335082605  0.335082605  0.046880702

  position of ions in fractional coordinates (direct lattice)
     0.500000000  0.500000000  0.351605267
     0.000000000  0.000000000  0.450535089
     0.500000000  0.500000000  0.549464911
     0.000000000  0.000000000  0.648394733
     0.500000000  0.500000000  0.450535089
     0.000000000  0.000000000  0.351605267
     0.500000000  0.500000000  0.648394733
     0.000000000  0.000000000  0.549464911

  ion indices of the primitive-cell ions
   primitive index   ion index
                 1           1
                 2           3
                 3           5
                 4           7
                 5          33
                 6          35
                 7          37
                 8          39

 KPOINTS: pymatgen v2020.8.13 with grid density =

Automatic generation of k-mesh.
 Grid dimensions read from file:
 generate k-points for:    2    2    1

 Generating k-lattice:

  Cartesian coordinates                     Fractional coordinates (reciprocal lattice)
     0.059234796  0.000000000  0.000000000     0.500000000  0.000000000  0.000000000
     0.000000000  0.059234796  0.000000000     0.000000000  0.500000000  0.000000000
     0.000000000  0.000000000  0.046880702     0.000000000  0.000000000  1.000000000

  Length of vectors
     0.059234796  0.059234796  0.046880702

  Shift w.r.t. Gamma in fractional coordinates (k-lattice)
     0.000000000  0.000000000  0.000000000

 Subroutine IBZKPT returns following result:

 Found      3 irreducible k-points:

 Following reciprocal coordinates:
            Coordinates               Weight
  0.000000  0.000000  0.000000      1.000000
[...]
      5     -41.5060      2.00000
      6     -41.5060      2.00000
      7     -41.5060      2.00000
      8     -41.5060      2.00000
      9     -41.4149      2.00000
     10     -41.4149      2.00000
     11     -41.4149      2.00000
     12     -41.4149      2.00000
     13     -41.3979      2.00000
     14     -41.3979      2.00000
     15     -41.3979      2.00000
     16     -41.3979      2.00000
     17     -41.3910      2.00000
     18     -41.3910      2.00000
     19     -41.3910      2.00000
     20     -41.3910      2.00000
     21     -41.3736      2.00000
     22     -41.3736      2.00000
     23     -41.3736      2.00000
     24     -41.3736      2.00000
     25     -41.3283      2.00000
     26     -41.3283      2.00000
     27     -41.3283      2.00000
     28     -41.3283      2.00000
     29     -41.3245      2.00000
     30     -41.3245      2.00000
     31     -41.3245      2.00000
     32     -41.3245      2.00000
     33     -41.2334      2.00000
     34     -41.2334      2.00000
     35     -41.2334      2.00000
     36     -41.2334      2.00000
     37     -41.2164      2.00000
     38     -41.2164      2.00000
     39     -41.2164      2.00000
     40     -41.2164      2.00000
     41     -41.2093      2.00000
     42     -41.2093      2.00000
     43     -41.2093      2.00000
     44     -41.2093      2.00000
     45     -41.1919      2.00000
     46     -41.1919      2.00000
     47     -41.1919      2.00000
     48     -41.1919      2.00000
     49     -40.9136      2.00000
     50     -40.9136      2.00000
     51     -40.9136      2.00000
     52     -40.9136      2.00000
     53     -40.8974      2.00000
     54     -40.8974      2.00000
     55     -40.8974      2.00000
     56     -40.8974      2.00000
     57     -40.8938      2.00000
     58     -40.8938      2.00000
     59     -40.8938      2.00000
     60     -40.8938      2.00000
[...]
    306       9.2229      0.00000
    307       9.2232      0.00000
    308       9.2241      0.00000
    309       9.3063      0.00000
    310       9.3069      0.00000
    311       9.3093      0.00000
    312       9.3097      0.00000
    313       9.5931      0.00000
    314       9.5931      0.00000
    315       9.5931      0.00000
    316       9.5931      0.00000
    317      10.3150      0.00000
    318      10.3320      0.00000
    319      10.3568      0.00000
    320      10.3652      0.00000

 soft charge-density along one line, spin component           1
         0         1         2         3         4         5         6         7         8         9
 total charge-density along one line

------------------------ aborting loop because EDIFF is reached ----------------------------------------

  FORCE on cell =-STRESS in cart. coord.  units (eV):
  Direction    XX          YY          ZZ          XY          YZ          ZX
  Alpha Z   875.25928   875.25928   875.25928
  Ewald  161089.19585161089.19585************    -0.00000    -0.00000     0.00000
  Hartree171163.35789171163.35789************    -0.00000    -0.00000    -0.00000
  E(xc)   -2465.27652 -2465.27652 -2473.58892    -0.00000     0.00000     0.00000
  Local  ************************342517.37593    -0.00000    -0.00000    -0.00000
  n-local -2794.68672 -2795.50382 -2816.17078    -0.00001    -0.00000    -0.00000
  augment  1046.60440  1046.60440  1036.89645    -0.00000    -0.00000     0.00000
  Kinetic  7307.94335  7310.55088  7349.43925     0.00000     0.00000    -0.00000
  Fock        0.00000     0.00000     0.00000     0.00000     0.00000     0.00000
  vdW       -21.48208   -21.48211   -16.14407     0.00000     0.00000     0.00000
  Total     -26.42590   -26.42590    -1.84339     0.00000     0.00000     0.00000
  in kB     -27.85790   -27.85790    -1.94329     0.00000     0.00000     0.00000

 VOLUME and BASIS-vectors are now :
  energy-cutoff  :      600.00
  volume of cell :     1519.82
      direct lattice vectors                 reciprocal lattice vectors
     8.440984654  0.000000000  0.000000000     0.118469591  0.000000000  0.000000000
     0.000000000  8.440984654  0.000000000     0.000000000  0.118469591  0.000000000
     0.000000000  0.000000000 21.330738491     0.000000000  0.000000000  0.046880702

  length of vectors
     8.440984654  8.440984654 21.330738491     0.118469591  0.118469591  0.046880702

 FORCES acting on ions:
    Electron-Ion                     Ewald-Force                    Non-Local-Force
   -.424E-13 0.177E-11 0.207E+04   0.742E-13 0.515E-13 -.206E+04   -.414E-24 -.207E-24 -.716E+01
   0.340E-12 0.222E-12 0.207E+04   -.288E-13 0.364E-13 -.206E+04   -.185E-23 0.207E-24 -.716E+01
   -.529E-13 0.192E-12 0.683E+03   -.150E-10 0.150E-10 -.683E+03   0.414E-23 0.000E+00 0.523E+00
   0.415E-12 0.157E-11 0.683E+03   0.150E-10 -.151E-10 -.683E+03   0.402E-23 0.207E-23 0.523E+00
   -.534E-13 0.936E-12 -.690E+03   -.497E-13 0.274E-13 0.691E+03   -.232E-22 -.993E-23 -.222E+00
   0.381E-12 -.141E-12 -.690E+03   0.933E-13 0.391E-13 0.691E+03   0.331E-23 -.993E-23 -.222E+00
   -.209E-13 -.545E-12 -.205E+04   -.462E-13 -.711E-14 0.204E+04   0.364E-22 0.463E-22 0.609E+01
   0.321E-12 0.232E-12 -.205E+04   -.120E-12 -.493E-13 0.204E+04   -.165E-23 -.331E-23 0.609E+01
   -.395E-13 0.704E-12 0.207E+04   0.145E-11 -.151E-10 -.206E+04   0.000E+00 0.310E-24 -.716E+01
   0.335E-12 0.122E-11 0.207E+04   -.144E-11 0.151E-10 -.206E+04   -.414E-24 0.000E+00 -.716E+01
   -.431E-13 0.127E-11 0.683E+03   -.166E-10 0.426E-13 -.683E+03   0.112E-22 -.331E-23 0.523E+00
   0.403E-12 0.710E-12 0.683E+03   0.165E-10 0.347E-14 -.683E+03   0.248E-23 -.424E-23 0.523E+00
   -.517E-13 0.572E-12 -.690E+03   0.853E-13 -.513E-13 0.691E+03   0.000E+00 -.248E-23 -.222E+00
   0.382E-12 0.128E-11 -.690E+03   0.559E-13 -.249E-13 0.691E+03   -.132E-22 0.331E-23 -.222E+00
   -.280E-13 0.286E-12 -.205E+04   -.110E-12 0.355E-13 0.204E+04   0.285E-22 0.000E+00 0.609E+01
   0.320E-12 -.249E-12 -.205E+04   -.985E-13 -.726E-14 0.204E+04   0.331E-23 -.232E-22 0.609E+01
   0.899E-12 0.314E-11 0.207E+04   -.165E-10 0.527E-13 -.206E+04   -.207E-24 -.414E-24 -.716E+01
   0.118E-11 0.215E-12 0.207E+04   0.166E-10 0.613E-13 -.206E+04   0.517E-25 0.414E-24 -.716E+01
   0.827E-12 0.205E-12 0.683E+03   0.141E-11 0.150E-10 -.683E+03   -.827E-23 -.165E-23 0.523E+00
   0.116E-11 0.201E-11 0.683E+03   -.146E-11 -.150E-10 -.683E+03   0.827E-23 0.290E-23 0.523E+00
   0.839E-12 0.230E-11 -.690E+03   0.266E-13 0.310E-13 0.691E+03   0.331E-23 0.993E-23 -.222E+00
   0.115E-11 -.138E-12 -.690E+03   -.151E-13 0.568E-13 0.691E+03   0.248E-23 0.132E-22 -.222E+00
   0.921E-12 -.552E-12 -.205E+04   -.178E-12 0.213E-13 0.204E+04   0.662E-22 -.141E-22 0.609E+01
   0.121E-11 0.124E-11 -.205E+04   -.181E-12 -.494E-13 0.204E+04   0.447E-22 0.298E-22 0.609E+01
   0.897E-12 -.721E-12 0.207E+04   -.151E-10 -.151E-10 -.206E+04   0.000E+00 0.129E-24 -.716E+01
   0.119E-11 0.808E-12 0.207E+04   0.150E-10 0.151E-10 -.206E+04   -.258E-24 0.207E-24 -.716E+01
   0.828E-12 0.143E-11 0.683E+03   0.355E-14 0.533E-13 -.683E+03   0.116E-22 -.496E-23 0.523E+00
   0.118E-11 0.865E-12 0.683E+03   -.321E-13 -.214E-13 -.683E+03   -.910E-23 -.414E-24 0.523E+00
   0.836E-12 0.842E-12 -.690E+03   0.000E+00 -.281E-13 0.691E+03   0.165E-23 -.108E-22 -.222E+00
   0.115E-11 0.194E-11 -.690E+03   -.286E-13 0.000E+00 0.691E+03   -.116E-22 -.662E-23 -.222E+00
   0.928E-12 0.119E-11 -.205E+04   -.153E-12 0.639E-13 0.204E+04   0.496E-23 -.199E-22 0.609E+01
   0.122E-11 0.140E-11 -.205E+04   -.167E-12 -.731E-14 0.204E+04   0.248E-23 0.215E-22 0.609E+01
   -.647E-13 0.678E-12 0.512E+03   0.933E-13 0.456E-13 -.512E+03   -.517E-25 0.827E-24 -.102E+00
   0.147E-12 -.286E-13 0.512E+03   0.331E-13 0.124E-13 -.512E+03   -.227E-23 0.331E-23 -.102E+00
   -.480E-13 -.209E-12 0.155E+04   0.851E-11 -.843E-11 -.156E+04   0.269E-23 0.414E-24 0.341E+01
   0.815E-13 0.148E-12 0.155E+04   -.844E-11 0.847E-11 -.156E+04   -.517E-25 0.207E-23 0.341E+01
   -.305E-13 0.862E-12 -.156E+04   0.175E-12 0.333E-13 0.156E+04   -.207E-22 -.165E-23 -.494E+01
   0.730E-13 0.418E-12 -.156E+04   0.175E-12 0.338E-13 0.156E+04   -.182E-22 -.124E-23 -.494E+01
   -.600E-13 0.808E-13 -.512E+03   0.853E-13 0.426E-13 0.512E+03   -.132E-22 0.199E-22 0.260E+00
   0.164E-12 0.726E-12 -.512E+03   0.997E-13 -.430E-13 0.512E+03   0.331E-23 0.993E-23 0.260E+00
   -.635E-13 0.389E-12 0.512E+03   -.760E-12 0.841E-11 -.512E+03   0.414E-24 0.827E-24 -.102E+00
   0.133E-12 0.638E-12 0.512E+03   0.831E-12 -.844E-11 -.512E+03   0.000E+00 -.248E-23 -.102E+00
   -.386E-13 0.290E-12 0.155E+04   0.931E-11 0.466E-13 -.156E+04   -.620E-24 -.145E-23 0.341E+01
   0.793E-13 0.121E-12 0.155E+04   -.929E-11 -.192E-13 -.156E+04   0.827E-24 -.414E-24 0.341E+01
   -.357E-13 0.566E-12 -.156E+04   0.121E-12 0.187E-13 0.156E+04   -.331E-23 -.124E-22 -.494E+01
   0.872E-13 0.572E-12 -.156E+04   0.143E-12 0.178E-13 0.156E+04   0.827E-23 0.000E+00 -.494E+01
   -.553E-13 0.613E-12 -.512E+03   0.142E-13 -.213E-13 0.512E+03   -.149E-22 -.993E-23 0.260E+00
   0.134E-12 0.448E-12 -.512E+03   0.441E-13 0.175E-16 0.512E+03   0.629E-22 -.331E-23 0.260E+00
   0.298E-12 0.269E-11 0.512E+03   0.924E-11 0.144E-13 -.512E+03   0.290E-23 0.393E-23 -.102E+00
   0.465E-12 -.370E-13 0.512E+03   -.926E-11 -.426E-13 -.512E+03   0.000E+00 0.155E-23 -.102E+00
   0.359E-12 -.202E-12 0.155E+04   -.836E-12 -.848E-11 -.156E+04   0.207E-24 0.827E-24 0.341E+01
   0.469E-12 -.216E-11 0.155E+04   0.779E-12 0.842E-11 -.156E+04   -.248E-23 0.672E-24 0.341E+01
   0.384E-12 0.444E-12 -.156E+04   0.103E-12 -.604E-14 0.156E+04   0.331E-23 0.132E-22 -.494E+01
   0.453E-12 0.391E-12 -.156E+04   0.746E-13 0.213E-13 0.156E+04   -.496E-23 0.827E-24 -.494E+01
   0.320E-12 0.455E-13 -.512E+03   0.142E-13 -.711E-14 0.512E+03   0.265E-22 0.199E-22 0.260E+00
   0.423E-12 0.285E-11 -.512E+03   -.139E-13 -.914E-13 0.512E+03   0.827E-22 0.116E-22 0.260E+00
   0.300E-12 -.278E-11 0.512E+03   0.838E-11 0.837E-11 -.512E+03   -.165E-23 0.207E-23 -.102E+00
   0.472E-12 0.132E-11 0.512E+03   -.851E-11 -.846E-11 -.512E+03   0.827E-24 -.414E-24 -.102E+00
   0.352E-12 0.189E-12 0.155E+04   -.768E-13 0.577E-14 -.156E+04   -.290E-23 0.235E-23 0.341E+01
   0.468E-12 0.990E-12 0.155E+04   -.661E-13 -.342E-13 -.156E+04   -.414E-24 -.103E-23 0.341E+01
   0.383E-12 0.127E-11 -.156E+04   0.995E-13 -.704E-14 0.156E+04   -.331E-23 -.703E-23 -.494E+01
   0.430E-12 0.104E-11 -.156E+04   0.703E-14 -.355E-13 0.156E+04   -.496E-23 0.827E-23 -.494E+01
   0.315E-12 0.367E-12 -.512E+03   0.213E-13 -.497E-13 0.512E+03   0.112E-21 -.662E-23 0.260E+00
   0.450E-12 -.172E-11 -.512E+03   -.993E-13 -.497E-13 0.512E+03   0.182E-22 0.232E-22 0.260E+00
   0.264E-10 0.380E-10 0.171E+02   -.107E-12 -.117E-12 -.109E-10   0.400E-21 0.926E-22 -.171E+02

 POSITION                                       TOTAL-FORCE (eV/Angst)
      0.00000      6.33074      7.50000         0.000000     -0.000000      0.339682
      2.11025      0.00000      7.50000        -0.000000      0.000000      0.339682
      0.00000      0.00000      9.61025        -0.000000     -0.000000      0.075951
      2.11025      6.33074      9.61025        -0.000000     -0.000000      0.075951
      0.00000      6.33074     11.73556         0.000000      0.000000      0.003093
      2.11025     -0.00000     11.73556        -0.000000     -0.000000      0.003093
     -0.00000      0.00000     13.84069        -0.000000     -0.000000     -0.000129
      2.11025      6.33074     13.84069         0.000000      0.000000     -0.000129
      0.00000      2.11025      7.50000         0.000000     -0.000000      0.339682
      2.11025      4.22049      7.50000         0.000000     -0.000000      0.339682
      0.00000      4.22049      9.61025        -0.000000     -0.000000      0.075951
      2.11025      2.11025      9.61025        -0.000000     -0.000000      0.075951
      0.00000      2.11025     11.73556        -0.000000      0.000000      0.003093
      2.11025      4.22049     11.73556         0.000000     -0.000000      0.003093
     -0.00000      4.22049     13.84069        -0.000000      0.000000     -0.000129
      2.11025      2.11025     13.84069         0.000000     -0.000000     -0.000129
      4.22049      6.33074      7.50000         0.000000      0.000000      0.339682
      6.33074      0.00000      7.50000         0.000000     -0.000000      0.339682
      4.22049      0.00000      9.61025        -0.000000      0.000000      0.075951
      6.33074      6.33074      9.61025         0.000000      0.000000      0.075951
      4.22049      6.33074     11.73556        -0.000000      0.000000      0.003093
      6.33074      0.00000     11.73556        -0.000000      0.000000      0.003093
      4.22049     -0.00000     13.84069        -0.000000      0.000000     -0.000129
      6.33074      6.33074     13.84069        -0.000000     -0.000000     -0.000129
      4.22049      2.11025      7.50000         0.000000      0.000000      0.339682
      6.33074      4.22049      7.50000        -0.000000     -0.000000      0.339682
      4.22049      4.22049      9.61025         0.000000      0.000000      0.075951
      6.33074      2.11025      9.61025        -0.000000     -0.000000      0.075951
      4.22049      2.11025     11.73556        -0.000000     -0.000000      0.003093
      6.33074      4.22049     11.73556         0.000000      0.000000      0.003093
      4.22049      4.22049     13.84069         0.000000     -0.000000     -0.000129
      6.33074      2.11025     13.84069        -0.000000      0.000000     -0.000129
      0.00000      6.33074      9.61025         0.000000     -0.000000      0.083605
      2.11025      0.00000      9.61025        -0.000000     -0.000000      0.083605
      0.00000      0.00000      7.50000        -0.000000     -0.000000     -0.501282
      2.11025      6.33074      7.50000         0.000000     -0.000000     -0.501282
     -0.00000      6.33074     13.88645         0.000000      0.000000     -0.002086
      2.11025      0.00000     13.88645         0.000000     -0.000000     -0.002086
      0.00000      0.00000     11.72957         0.000000      0.000000      0.001165
      2.11025      6.33074     11.72957        -0.000000      0.000000      0.001165
      0.00000      2.11025      9.61025        -0.000000     -0.000000      0.083605
      2.11025      4.22049      9.61025        -0.000000     -0.000000      0.083605
      0.00000      4.22049      7.50000        -0.000000     -0.000000     -0.501282
      2.11025      2.11025      7.50000         0.000000     -0.000000     -0.501282
      0.00000      2.11025     13.88645         0.000000     -0.000000     -0.002086
      2.11025      4.22049     13.88645         0.000000      0.000000     -0.002086
      0.00000      4.22049     11.72957         0.000000     -0.000000      0.001165
      2.11025      2.11025     11.72957        -0.000000      0.000000      0.001165
      4.22049      6.33074      9.61025        -0.000000      0.000000      0.083605
      6.33074      0.00000      9.61025        -0.000000     -0.000000      0.083605
      4.22049      0.00000      7.50000        -0.000000      0.000000     -0.501282
      6.33074      6.33074      7.50000        -0.000000     -0.000000     -0.501282
      4.22049      6.33074     13.88645        -0.000000      0.000000     -0.002086
      6.33074     -0.00000     13.88645        -0.000000      0.000000     -0.002086
      4.22049     -0.00000     11.72957        -0.000000      0.000000      0.001165
      6.33074      6.33074     11.72957        -0.000000      0.000000      0.001165
      4.22049      2.11025      9.61025        -0.000000     -0.000000      0.083605
      6.33074      4.22049      9.61025        -0.000000      0.000000      0.083605
      4.22049      4.22049      7.50000         0.000000     -0.000000     -0.501282
      6.33074      2.11025      7.50000        -0.000000      0.000000     -0.501282
      4.22049      2.11025     13.88645        -0.000000      0.000000     -0.002086
      6.33074      4.22049     13.88645        -0.000000     -0.000000     -0.002086
      4.22049      4.22049     11.72957        -0.000000     -0.000000      0.001165
      6.33074      2.11025     11.72957         0.000000      0.000000      0.001165
    total drift:                                0.000000      0.000000     -0.037126

  FREE ENERGIE OF THE ION-ELECTRON SYSTEM (eV)
  free  energy   TOTEN  =      -371.29565497 eV

  energy  without entropy=     -371.29565497  energy(sigma->0) =     -371.29565497

 d Force = 0.8222147E-04[-0.371E-05, 0.168E-03]  d Energy = 0.8350149E-04-0.128E-05
 d Force =-0.6367561E+01[-0.637E+01,-0.637E+01]  d Ewald  =-0.6367561E+01 0.590E-07

 reached required accuracy - stopping structural energy minimisation