 vasp.6.3.0 20Jan22 (build Mar 06 2023 08:24:33) complex

 executed on             LinuxIFC date 2023.04.05  16:36:35

 INCAR:
   ENCUT = 500
   SIGMA = 0.0001
   EDIFF = 1E-4
   LHFCALC = .TRUE.
   AEXX = 1.0
   ALGO = C
   NCORE = 4

 POTCAR:    PAW_PBE C_GW 28Sep2005
 POTCAR:    PAW_PBE Mg_pv_GW 20Apr2010
 POTCAR:    PAW_PBE O_GW_new 19Mar2012
|           W    W    AA    RRRRR   N    N  II  N    N   GGGG   !!!           |
|           W    W   A  A   R    R  NN   N  II  NN   N  G    G  !!!           |
|           W    W  A    A  R    R  N N  N  II  N N  N  G       !!!           |
|           W WW W  AAAAAA  RRRRR   N  N N  II  N  N N  G  GGG   !            |
|           WW  WW  A    A  R   R   N   NN  II  N   NN  G    G                |
|           W    W  A    A  R    R  N    N  II  N    N   GGGG   !!!           |
|     For optimal performance we recommend to set                             |
|       NCORE = 2 up to number-of-cores-per-socket                            |
|     This setting can greatly improve the performance of VASP for DFT.       |
|     The default, NCORE=1 might be grossly inefficient on modern             |
|     multi-core architectures or massively parallel machines. Do your        |
|     Unfortunately you need to use the default for GW and RPA                |
|     calculations (for HF NCORE is supported but not extensively tested      |
|     yet).                                                                   |

   TITEL  = PAW_PBE C_GW 28Sep2005
   POMASS =   12.011; ZVAL   =    4.000    mass and valenz
   ENMAX  =  413.992; ENMIN  =  310.494 eV

   TITEL  = PAW_PBE Mg_pv_GW 20Apr2010
   POMASS =   24.305; ZVAL   =    8.000    mass and valenz
   ENMAX  =  403.929; ENMIN  =  302.947 eV

   TITEL  = PAW_PBE O_GW_new 19Mar2012
   POMASS =   16.000; ZVAL   =    6.000    mass and valenz
   ENMAX  =  434.431; ENMIN  =  325.824 eV

  PAW_PBE C_GW 28Sep2005                :
  PAW_PBE Mg_pv_GW 20Apr2010            :
  PAW_PBE O_GW_new 19Mar2012            :

 POSCAR:  C  O Mg  O
  positions in direct lattice
 exchange correlation table for  LEXCH =        8
   RHO(1)=    0.500       N(1)  =     2000
   RHO(2)=  100.500       N(2)  =     4000

 ion  position               nearest neighbor table
   1  0.500  0.500  0.694-  34 1.15
   2  0.000  0.750  0.253-  24 2.11  21 2.11  29 2.11  20 2.11  18 2.15
   3  0.250  0.000  0.253-  28 2.11  25 2.11  21 2.11  20 2.11  19 2.15
   4  0.000  0.000  0.350-  18 2.11  19 2.11  22 2.11  27 2.11  20 2.11
   5  0.250  0.750  0.350-  21 2.11  19 2.11  18 2.11  23 2.11  26 2.11
   6  0.000  0.250  0.253-  24 2.11  25 2.11  33 2.11  20 2.11  22 2.15
   7  0.250  0.500  0.253-  32 2.11  25 2.11  21 2.11  24 2.11  23 2.15
   8  0.000  0.500  0.350-  23 2.10  31 2.10  24 2.11  22 2.11  18 2.11
   9  0.250  0.250  0.350-  25 2.11  22 2.11  19 2.11  23 2.11  30 2.11
  10  0.500  0.750  0.253-  32 2.11  29 2.11  21 2.11  28 2.11  26 2.15
  11  0.750  0.000  0.253-  28 2.11  29 2.11  33 2.11  20 2.11  27 2.15
  12  0.500  0.000  0.350-  26 2.10  30 2.10  28 2.11  19 2.11  27 2.11
  13  0.750  0.750  0.350-  29 2.11  27 2.11  18 2.11  26 2.11  31 2.11
  14  0.500  0.250  0.253-  32 2.11  25 2.11  33 2.11  28 2.11  30 2.15
  15  0.750  0.500  0.253-  32 2.11  29 2.11  33 2.11  24 2.11  31 2.15
  16  0.500  0.500  0.352-  23 2.12  26 2.12  30 2.12  31 2.12  32 2.14
  17  0.750  0.250  0.350-  33 2.11  27 2.11  22 2.11  31 2.11  30 2.11
  18  0.000  0.750  0.352-   4 2.11   5 2.11  13 2.11   8 2.11   2 2.15
  19  0.250  0.000  0.352-   4 2.11   5 2.11   9 2.11  12 2.11   3 2.15
  20  0.000  0.000  0.253-   4 2.11   3 2.11   2 2.11   6 2.11  11 2.11
  21  0.250  0.750  0.253-   5 2.11   3 2.11   2 2.11   7 2.11  10 2.11
  22  0.000  0.250  0.352-   4 2.11   9 2.11  17 2.11   8 2.11   6 2.15
  23  0.249  0.500  0.352-   8 2.10   5 2.11   9 2.11  16 2.12   7 2.15
  24  0.000  0.500  0.253-   8 2.11   6 2.11   2 2.11   7 2.11  15 2.11
  25  0.250  0.250  0.253-   9 2.11   6 2.11   3 2.11   7 2.11  14 2.11
  26  0.500  0.751  0.352-  12 2.10   5 2.11  13 2.11  16 2.12  10 2.15
  27  0.750  0.000  0.352-   4 2.11  13 2.11  17 2.11  12 2.11  11 2.15
  28  0.500  0.000  0.253-  12 2.11  11 2.11   3 2.11  10 2.11  14 2.11
  29  0.750  0.750  0.253-  13 2.11  11 2.11   2 2.11  10 2.11  15 2.11
  30  0.500  0.249  0.352-  12 2.10   9 2.11  17 2.11  16 2.12  14 2.15
  31  0.751  0.500  0.352-   8 2.10  13 2.11  17 2.11  16 2.12  15 2.15
  32  0.500  0.500  0.253-   7 2.11  10 2.11  14 2.11  15 2.11  16 2.14
  33  0.750  0.250  0.253-  17 2.11  11 2.11   6 2.11  15 2.11  14 2.11
  34  0.500  0.500  0.747-   1 1.15

  LATTYP: Found a simple tetragonal cell.
 ALAT       =     8.4409846542
 C/A-ratio  =     2.5754268781

  Lattice vectors:

 A1 = (   8.4409846542,   0.0000000000,   0.0000000000)
 A2 = (   0.0000000000,   8.4409846542,   0.0000000000)
 A3 = (   0.0000000000,   0.0000000000,  21.7391387558)

Analysis of symmetry for initial positions (statically):
 Subroutine PRICEL returns:
 Original cell was already a primitive cell.

 Routine SETGRP: Setting up the symmetry group for a
 simple tetragonal supercell.

 Subroutine GETGRP returns: Found  8 space group operations
 (whereof  8 operations were pure point group operations)
 out of a pool of 16 trial point group operations.

The static configuration has the point symmetry C_4v.

Analysis of symmetry for dynamics (positions and initial velocities):
 Subroutine PRICEL returns:
 Original cell was already a primitive cell.

 Routine SETGRP: Setting up the symmetry group for a
 simple tetragonal supercell.

 Subroutine GETGRP returns: Found  8 space group operations
 (whereof  8 operations were pure point group operations)
 out of a pool of 16 trial point group operations.

The dynamic configuration has the point symmetry C_4v.

 Subroutine INISYM returns: Found  8 space group operations
 (whereof  8 operations are pure point group operations),
 and found     1 'primitive' translations

                                     Primitive cell

  volume of cell :    1548.9185

  direct lattice vectors                    reciprocal lattice vectors
     8.440984654  0.000000000  0.000000000     0.118469591  0.000000000  0.000000000
     0.000000000  8.440984654  0.000000000     0.000000000  0.118469591  0.000000000
     0.000000000  0.000000000 21.739138756     0.000000000  0.000000000  0.045999982

  length of vectors
     8.440984654  8.440984654 21.739138756     0.118469591  0.118469591  0.045999982

  position of ions in fractional coordinates (direct lattice)
     0.500000000  0.500000000  0.694246406
     0.000000000  0.749939268  0.253314454
     0.250060732  0.000000000  0.253314454
     0.000000000  0.000000000  0.350123019
     0.249858327  0.750141673  0.349950559
     0.000000000  0.250060732  0.253314454
     0.250378379  0.500000000  0.253448179
     0.000000000  0.500000000  0.349995433
     0.249858327  0.249858327  0.349950559
     0.500000000  0.749621621  0.253448179
     0.749939268  0.000000000  0.253314454
     0.500000000  0.000000000  0.349995433
     0.750141673  0.750141673  0.349950559
     0.500000000  0.250378379  0.253448179
     0.749621621  0.500000000  0.253448179
     0.500000000  0.500000000  0.351959508
     0.750141673  0.249858327  0.349950559
     0.000000000  0.750218533  0.352314997
     0.249781467  0.000000000  0.352314997
     0.000000000  0.000000000  0.253046241
     0.249945770  0.750054230  0.253094539
     0.000000000  0.249781467  0.352314997
     0.248822710  0.500000000  0.352220424
     0.000000000  0.500000000  0.252999903
     0.249945770  0.249945770  0.253094539
     0.500000000  0.751177290  0.352220424
     0.750218533  0.000000000  0.352314997
     0.500000000  0.000000000  0.252999903
     0.750054230  0.750054230  0.253094539
     0.500000000  0.248822710  0.352220424
     0.751177290  0.500000000  0.352220424
     0.500000000  0.500000000  0.253459789
     0.750054230  0.249945770  0.253094539
     0.500000000  0.500000000  0.747000097

  ion indices of the primitive-cell ions
   primitive index   ion index
                 1           1
                 2           2
                 3           3
                 4           4
                 5           5
                 6           6
                 7           7
                 8           8
                 9           9
                10          10
                11          11
                12          12
                13          13
                14          14
                15          15
                16          16
                17          17
                18          18
                19          19
                20          20
                21          21
                22          22
                23          23
                24          24
                25          25
                26          26
                27          27
                28          28
                29          29
                30          30
                31          31
                32          32
                33          33
                34          34

 KPOINTS: Automatically generated mesh

Automatic generation of k-mesh.
 Grid dimensions read from file:
 generate k-points for:    2    2    1

 Generating k-lattice:

  Cartesian coordinates                     Fractional coordinates (reciprocal lattice)
     0.059234796  0.000000000  0.000000000     0.500000000  0.000000000  0.000000000
     0.000000000  0.059234796  0.000000000     0.000000000  0.500000000  0.000000000
     0.000000000  0.000000000  0.045999982     0.000000000  0.000000000  1.000000000

  Length of vectors
     0.059234796  0.059234796  0.045999982

  Shift w.r.t. Gamma in fractional coordinates (k-lattice)
     0.000000000  0.000000000  0.000000000

 Subroutine IBZKPT returns following result:

 Found      3 irreducible k-points:

 Following reciprocal coordinates:
            Coordinates               Weight
  0.000000  0.000000  0.000000      1.000000
  0.500000  0.000000  0.000000      2.000000
  0.500000  0.500000  0.000000      1.000000

 Following cartesian coordinates:
            Coordinates               Weight
  0.000000  0.000000  0.000000      1.000000
  0.059235  0.000000  0.000000      2.000000
  0.059235  0.059235  0.000000      1.000000

 Subroutine IBZKPT_HF returns following result:

 Found      4 k-points in 1st BZ
 the following      4 k-points will be used (e.g. in the exchange kernel)
 Following reciprocal coordinates:   # in IRBZ
  0.000000  0.000000  0.000000    0.25000000   1 t-inv F
  0.500000  0.000000  0.000000    0.25000000   2 t-inv F
  0.500000  0.500000  0.000000    0.25000000   3 t-inv F
  0.000000  0.500000  0.000000    0.25000000   2 t-inv F

 SYSTEM =  unknown system
 POSCAR =   C  O Mg  O

 Startparameter for this run:
   NWRITE =      2    write-flag & timer
   PREC   = normal    normal or accurate (medium, high low for compatibility)
   ISTART =      0    job   : 0-new  1-cont  2-samecut
   ICHARG =      2    charge: 1-file 2-atom 10-const
   ISPIN  =      1    spin polarized calculation?
   LNONCOLLINEAR =      F non collinear calculations
[...]
       energy cutoff for augmentation   2000.0

 real space projection operators:
  max/ min on nodes  :       1087.52        994.41

 Maximum index for augmentation-charges in exchange          227
  SETUP_FOCK is finished

 Broyden mixing: mesh for mixing (old mesh)
   NGX = 31   NGY = 31   NGZ = 79
  (NGX  = 96   NGY  = 96   NGZ  =240)
  gives a total of  75919 points

 initial charge density was supplied:
 charge density of overlapping atoms calculated
 number of electron     234.0000000 magnetization
 keeping initial charge density in first step

 Maximum index for augmentation-charges          273 (set IRDMAX)

--------------------------------------- Iteration      1(   1)  ---------------------------------------

 eigenvalue-minimisations  :  1152
 total energy-change (2. order) :-0.4461157E+04  (-0.1939696E+05)
 number of electron     234.0000000 magnetization
 augmentation part      234.0000000 magnetization

 Free energy of the ion-electron system (eV)
  alpha Z        PSCENC =       200.63487369
  Ewald energy   TEWEN  =     59439.95604768
  -Hartree energ DENC   =    -77002.14522108
  -exchange      EXHF   =         0.00000000
  -V(xc)+E(xc)   XCENC  =       880.29354823
  PAW double counting   =     16426.19331017   -24400.73210609
  entropy T*S    EENTRO =         0.00000000
  eigenvalues    EBANDS =     -3924.40943475
  atomic energy  EATOM  =     23919.05224044
  free energy    TOTEN  =     -4461.15674169 eV

  energy without entropy =    -4461.15674169  energy(sigma->0) =    -4461.15674169
  exchange ACFDT corr.  =         0.00000000  see jH, gK, PRB 81, 115126

[...]

 eigenvalue-minimisations  :  1728
 total energy-change (2. order) : 0.7463313E+04  (-0.1957439E+02)
 number of electron     234.0000857 magnetization
 augmentation part       81.0459912 magnetization

[...]

 eigenvalue-minimisations  :     0
 total energy-change (2. order) : 0.1941576E+03  (-0.9308696E+02)
 number of electron     234.0001015 magnetization
 augmentation part       74.9677313 magnetization

[...]

--------------------------------------- Iteration      1(  34)  ---------------------------------------

 eigenvalue-minimisations  :     0
 total energy-change (2. order) :-0.9440946E-04  (-0.6793051E-04)
 number of electron     234.0001031 magnetization
 augmentation part       76.5118003 magnetization

 Free energy of the ion-electron system (eV)
  alpha Z        PSCENC =       200.63487369
  Ewald energy   TEWEN  =     59439.95604768
  -Hartree energ DENC   =    -78132.38134941
  -exchange      EXHF   =      3338.73108870
  -V(xc)+E(xc)   XCENC  =         0.00000000
  PAW double counting   =     20228.94819141   -21682.23083617
  entropy T*S    EENTRO =         0.00000000
  eigenvalues    EBANDS =     -7685.97841287
  atomic energy  EATOM  =     23919.05224044
  free energy    TOTEN  =      -373.25470882 eV

  energy without entropy =     -373.25470882  energy(sigma->0) =     -373.25470882
  exchange ACFDT corr.  =         0.00000000  see jH, gK, PRB 81, 115126

  average scaling for gradient   0.6823

 average (electrostatic) potential at core
  the test charge radii are     0.6991  0.8294  0.6768
  (the norm of the test charge is              1.0000)
       1 -43.6028       2 -16.7145       3 -16.7143       4 -16.3930       5 -16.4262
       6 -16.7144       7 -16.7132       8 -16.3908       9 -16.4265      10 -16.7131
      11 -16.7145      12 -16.3908      13 -16.4265      14 -16.7131      15 -16.7131
      16 -16.5972      17 -16.4262      18 -91.8686      19 -91.8686      20 -92.1467
      21 -92.1583      22 -91.8686      23 -91.9199      24 -92.1459      25 -92.1580
      26 -91.9200      27 -91.8686      28 -92.1458      29 -92.1583      30 -91.9200
      31 -91.9201      32 -92.1456      33 -92.1585      34 -98.5742

 E-fermi :  -8.0981     XC(G=0):   0.0000     alpha+bet : -2.7082

 Fermi energy:        -8.0981318067

 k-point     1 :       0.0000    0.0000    0.0000
  band No.  band energies     occupation
      1     -58.1406      2.00000
      2     -58.1372      2.00000
      3     -58.1371      2.00000
      4     -58.1368      2.00000
      5     -58.1367      2.00000
      6     -58.1363      2.00000
      7     -58.1363      2.00000
      8     -58.1327      2.00000
      9     -58.1104      2.00000
     10     -58.1098      2.00000
     11     -58.1005      2.00000
     12     -58.1005      2.00000
     13     -58.0856      2.00000
     14     -58.0856      2.00000
     15     -58.0855      2.00000
     16     -58.0845      2.00000
     17     -58.0845      2.00000
     18     -58.0843      2.00000
     19     -58.0836      2.00000
     20     -58.0835      2.00000
     21     -58.0678      2.00000
     22     -58.0677      2.00000
     23     -58.0600      2.00000
     24     -58.0592      2.00000
     25     -58.0193      2.00000
     26     -57.9640      2.00000
     27     -57.9640      2.00000
     28     -57.8534      2.00000
     29     -57.8527      2.00000
     30     -57.8524      2.00000
     31     -57.8520      2.00000
     32     -57.8194      2.00000
     33     -57.8173      2.00000
     34     -57.8171      2.00000
     35     -57.8070      2.00000
     36     -57.8069      2.00000
     37     -57.8009      2.00000
     38     -57.8008      2.00000
     39     -57.7979      2.00000
     40     -57.7972      2.00000
     41     -57.7968      2.00000
     42     -57.7962      2.00000
     43     -57.7625      2.00000
     44     -57.7625      2.00000
     45     -57.7592      2.00000
     46     -57.7591      2.00000
     47     -57.7518      2.00000
     48     -57.7518      2.00000
     49     -39.4883      2.00000
     50     -30.5469      2.00000
     51     -29.8407      2.00000
     52     -29.8406      2.00000
     53     -29.8277      2.00000
     54     -29.8200      2.00000
     55     -29.6247      2.00000
     56     -29.6020      2.00000
     57     -29.6001      2.00000
     58     -29.3323      2.00000
     59     -29.3323      2.00000
     60     -29.2650      2.00000
[...]
    178       9.2022      0.00000
    179       9.2330      0.00000
    180       9.2699      0.00000
    181       9.3446      0.00000
    182       9.6739      0.00000
    183       9.8994      0.00000
    184      10.1318      0.00000
    185      10.1603      0.00000
    186      10.1967      0.00000
    187      10.7182      0.00000
    188      11.1583      0.00000
    189      11.2736      0.00000
    190      11.4463      0.00000
    191      11.7995      0.00000
    192      12.6055      0.00000

[...]

 k-point     3 :       0.5000    0.5000    0.0000
  band No.  band energies     occupation
      1     -58.1391      2.00000
      2     -58.1387      2.00000
      3     -58.1386      2.00000
      4     -58.1384      2.00000
      5     -58.1352      2.00000
      6     -58.1348      2.00000
      7     -58.1347      2.00000
      8     -58.1342      2.00000
      9     -58.1056      2.00000
     10     -58.1053      2.00000
     11     -58.1052      2.00000
     12     -58.1052      2.00000
     13     -58.0895      2.00000
     14     -58.0891      2.00000
     15     -58.0888      2.00000
     16     -58.0888      2.00000
     17     -58.0803      2.00000
     18     -58.0802      2.00000
     19     -58.0801      2.00000
     20     -58.0799      2.00000
     21     -58.0639      2.00000
     22     -58.0637      2.00000
     23     -58.0637      2.00000
     24     -58.0634      2.00000
     25     -58.0193      2.00000
     26     -57.9640      2.00000
     27     -57.9640      2.00000
     28     -57.8528      2.00000
     29     -57.8528      2.00000
     30     -57.8525      2.00000
     31     -57.8525      2.00000
     32     -57.8193      2.00000
     33     -57.8173      2.00000
     34     -57.8172      2.00000
     35     -57.8060      2.00000
     36     -57.8057      2.00000
     37     -57.8021      2.00000
     38     -57.8019      2.00000
     39     -57.7981      2.00000
     40     -57.7978      2.00000
     41     -57.7964      2.00000
     42     -57.7962      2.00000
     43     -57.7626      2.00000
     44     -57.7612      2.00000
     45     -57.7582      2.00000
     46     -57.7582      2.00000
     47     -57.7535      2.00000
     48     -57.7524      2.00000
     49     -39.4882      2.00000
     50     -30.1495      2.00000
     51     -30.1495      2.00000
     52     -30.1476      2.00000
     53     -30.1422      2.00000
     54     -29.4431      2.00000
     55     -29.4430      2.00000
     56     -29.4427      2.00000
     57     -29.4405      2.00000
     58     -29.4217      2.00000
     59     -29.4197      2.00000
     60     -29.4197      2.00000
[...]
    178       8.7857      0.00000
    179       8.8228      0.00000
    180       8.8863      0.00000
    181       8.9507      0.00000
    182       9.0038      0.00000
    183       9.3136      0.00000
    184       9.5913      0.00000
    185       9.7228      0.00000
    186       9.8187      0.00000
    187       9.8529      0.00000
    188       9.9230      0.00000
    189      10.0629      0.00000
    190      10.0984      0.00000
    191      10.6971      0.00000
    192      11.4154      0.00000

 soft charge-density along one line, spin component           1
         0         1         2         3         4         5         6         7         8         9
 total charge-density along one line

------------------------ aborting loop because EDIFF is reached ----------------------------------------

 VOLUME and BASIS-vectors are now :
  energy-cutoff  :      500.00
  volume of cell :     1548.92
      direct lattice vectors                 reciprocal lattice vectors
     8.440984654  0.000000000  0.000000000     0.118469591  0.000000000  0.000000000
     0.000000000  8.440984654  0.000000000     0.000000000  0.118469591  0.000000000
     0.000000000  0.000000000 21.739138756     0.000000000  0.000000000  0.045999982

  length of vectors
     8.440984654  8.440984654 21.739138756     0.118469591  0.118469591  0.045999982

 FORCES acting on ions:
    Electron-Ion                     Ewald-Force                    Non-Local-Force
   -.704E-04 -.763E-04 -.472E+01   -.192E-16 0.827E-16 -.198E+02   0.223E-21 -.990E-21 0.274E+02
   0.496E-04 0.119E+00 0.927E+03   -.942E-13 -.127E+00 -.919E+03   -.652E-21 0.427E-02 -.250E+01
   -.119E+00 -.618E-04 0.927E+03   0.127E+00 -.284E-13 -.919E+03   -.427E-02 0.136E-20 -.250E+01
   0.191E-04 -.115E-03 -.883E+03   -.143E-13 0.959E-13 0.876E+03   -.300E-20 0.480E-20 0.223E+01
   -.879E+00 0.879E+00 -.879E+03   0.691E+00 -.691E+00 0.872E+03   0.466E-01 -.466E-01 0.225E+01
   0.262E-03 -.119E+00 0.927E+03   -.852E-13 0.127E+00 -.919E+03   -.276E-20 -.427E-02 -.250E+01
   -.146E+01 0.227E-06 0.925E+03   0.154E+01 -.533E-14 -.916E+03   -.311E-01 0.435E-20 -.252E+01
   0.144E-03 0.921E-04 -.880E+03   0.178E-13 -.106E-13 0.873E+03   0.190E-21 -.575E-21 0.222E+01
   -.879E+00 -.879E+00 -.879E+03   0.691E+00 0.691E+00 0.872E+03   0.466E-01 0.466E-01 0.225E+01
   0.462E-04 0.146E+01 0.925E+03   0.551E-13 -.154E+01 -.916E+03   0.200E-20 0.311E-01 -.252E+01
   0.119E+00 -.941E-04 0.927E+03   -.127E+00 -.285E-13 -.919E+03   0.427E-02 0.311E-20 -.250E+01
   0.186E-03 -.457E-04 -.880E+03   -.107E-13 -.391E-13 0.873E+03   0.510E-21 -.913E-21 0.222E+01
   0.879E+00 0.879E+00 -.879E+03   -.691E+00 -.691E+00 0.872E+03   -.466E-01 -.466E-01 0.225E+01
   -.662E-04 -.146E+01 0.925E+03   0.142E-12 0.154E+01 -.916E+03   0.487E-20 -.311E-01 -.252E+01
   0.146E+01 0.134E-03 0.925E+03   -.154E+01 0.284E-13 -.916E+03   0.311E-01 0.133E-20 -.252E+01
   -.454E-04 0.355E-04 -.905E+03   0.604E-13 -.110E-16 0.897E+03   0.663E-21 -.519E-20 0.245E+01
   0.879E+00 -.879E+00 -.879E+03   -.691E+00 0.691E+00 0.872E+03   -.466E-01 0.466E-01 0.225E+01
   0.387E-03 0.829E-01 -.690E+03   0.371E-13 -.980E-01 0.695E+03   0.357E-20 0.918E-03 -.280E+01
   -.827E-01 0.227E-03 -.690E+03   0.980E-01 0.261E-14 0.695E+03   -.918E-03 0.276E-20 -.280E+01
   -.463E-04 0.357E-03 0.704E+03   0.830E-11 -.833E-11 -.707E+03   0.211E-20 -.383E-21 0.124E+01
   -.612E+00 0.611E+00 0.704E+03   0.582E+00 -.582E+00 -.707E+03   0.244E-01 -.244E-01 0.132E+01
   -.141E-03 -.828E-01 -.690E+03   0.817E-12 0.980E-01 0.695E+03   -.202E-20 -.918E-03 -.280E+01
   -.291E+01 0.158E-03 -.687E+03   0.256E+01 -.879E-13 0.692E+03   0.314E+00 -.148E-21 -.249E+01
   -.139E-03 -.405E-03 0.705E+03   -.881E-12 -.710E-14 -.709E+03   -.155E-20 -.366E-21 0.131E+01
   -.612E+00 -.612E+00 0.704E+03   0.582E+00 0.582E+00 -.707E+03   0.244E-01 0.244E-01 0.132E+01
   -.298E-03 0.291E+01 -.687E+03   -.675E-13 -.256E+01 0.692E+03   0.410E-21 -.314E+00 -.249E+01
   0.822E-01 0.661E-03 -.690E+03   -.980E-01 -.285E-13 0.695E+03   0.918E-03 -.179E-20 -.280E+01
   0.245E-03 0.333E-03 0.705E+03   -.156E-12 -.142E-13 -.709E+03   -.390E-21 0.710E-21 0.131E+01
   0.612E+00 0.612E+00 0.704E+03   -.582E+00 -.582E+00 -.707E+03   -.244E-01 -.244E-01 0.132E+01
   0.145E-03 -.291E+01 -.687E+03   -.214E-13 0.256E+01 0.692E+03   0.243E-21 0.314E+00 -.249E+01
   0.291E+01 -.287E-03 -.687E+03   -.256E+01 -.426E-13 0.692E+03   -.314E+00 -.358E-21 -.249E+01
   -.107E-03 -.225E-03 0.694E+03   0.853E-13 0.355E-13 -.697E+03   0.236E-20 0.324E-20 0.103E+01
   0.612E+00 -.612E+00 0.704E+03   -.582E+00 0.582E+00 -.707E+03   -.244E-01 0.244E-01 0.132E+01
   0.141E-03 -.560E-04 -.400E+03   0.318E-15 0.564E-15 0.454E+03   0.578E-20 -.630E-21 -.320E+02
   0.191E-03 0.476E-03 0.551E+02   -.162E-12 0.110E-12 0.199E-11   0.382E-16 0.173E-16 -.176E+02

 POSITION                                       TOTAL-FORCE (eV/Angst)
      4.22049      4.22049     15.09232         0.000000     -0.000000      5.686079
      0.00000      6.33023      5.50684         0.000000      0.003431      0.741025
      2.11076      0.00000      5.50684        -0.003431     -0.000000      0.741025
      0.00000      0.00000      7.61137         0.000000     -0.000000     -0.199328
      2.10905      6.33193      7.60762        -0.031090      0.031090     -0.189196
      0.00000      2.11076      5.50684         0.000000     -0.003431      0.741025
      2.11344      4.22049      5.50975        -0.009425     -0.000000      0.742988
      0.00000      4.22049      7.60860         0.000000     -0.000000     -0.182160
      2.10905      2.10905      7.60762        -0.031090     -0.031090     -0.189196
      4.22049      6.32754      5.50975         0.000000      0.009425      0.742988
      6.33023      0.00000      5.50684         0.003431     -0.000000      0.741025
      4.22049      0.00000      7.60860         0.000000     -0.000000     -0.182160
      6.33193      6.33193      7.60762         0.031090      0.031090     -0.189196
      4.22049      2.11344      5.50975         0.000000     -0.009425      0.742988
      6.32754      4.22049      5.50975         0.009425     -0.000000      0.742988
      4.22049      4.22049      7.65130         0.000000     -0.000000     -0.528285
      6.33193      2.10905      7.60762         0.031090     -0.031090     -0.189196
      0.00000      6.33258      7.65902         0.000000     -0.010685     -0.171827
      2.10840      0.00000      7.65902         0.010685     -0.000000     -0.171827
      0.00000      0.00000      5.50101         0.000000     -0.000000     -0.396573
      2.10979      6.33120      5.50206         0.010659     -0.010659     -0.386490
      0.00000      2.10840      7.65902         0.000000      0.010685     -0.171827
      2.10031      4.22049      7.65697         0.161335     -0.000000     -0.073963
      0.00000      4.22049      5.50000         0.000000     -0.000000     -0.384036
      2.10979      2.10979      5.50206         0.010659      0.010659     -0.386490
      4.22049      6.34068      7.65697         0.000000     -0.161335     -0.073963
      6.33258      0.00000      7.65902        -0.010685     -0.000000     -0.171827
      4.22049      0.00000      5.50000         0.000000     -0.000000     -0.384036
      6.33120      6.33120      5.50206        -0.010659     -0.010659     -0.386490
      4.22049      2.10031      7.65697         0.000000      0.161335     -0.073963
      6.34068      4.22049      7.65697        -0.161335     -0.000000     -0.073963
      4.22049      4.22049      5.51000         0.000000     -0.000000     -0.360872
      6.33120      2.10979      5.50206        -0.010659      0.010659     -0.386490
      4.22049      4.22049     16.23914         0.000000     -0.000000     -5.718777
    total drift:                                0.000191      0.000476      0.085688

  FREE ENERGIE OF THE ION-ELECTRON SYSTEM (eV)
  free  energy   TOTEN  =      -373.25470882 eV

  energy  without entropy=     -373.25470882  energy(sigma->0) =     -373.25470882

 writing wavefunctions