 vasp.6.3.0 20Jan22 (build Dec 21 2022 18:11:10) gamma-only

 executed on             LinuxIFC date 2023.02.23  08:32:21

 INCAR:
   ENCUT = 500
   SIGMA = 0.0001
   EDIFF = 1E-6
   LHFCALC = .TRUE.
   AEXX = 1.0
   ALGO = C
   NCORE = 2

 POTCAR:    PAW_PBE C_GW 28Sep2005
 POTCAR:    PAW_PBE Mg_pv_GW 20Apr2010
 POTCAR:    PAW_PBE O_GW_new 19Mar2012
|           W    W    AA    RRRRR   N    N  II  N    N   GGGG   !!!           |
|           W    W   A  A   R    R  NN   N  II  NN   N  G    G  !!!           |
|           W    W  A    A  R    R  N N  N  II  N N  N  G       !!!           |
|           W WW W  AAAAAA  RRRRR   N  N N  II  N  N N  G  GGG   !            |
|           WW  WW  A    A  R   R   N   NN  II  N   NN  G    G                |
|           W    W  A    A  R    R  N    N  II  N    N   GGGG   !!!           |
|     For optimal performance we recommend to set                             |
|       NCORE = 2 up to number-of-cores-per-socket                            |
|     This setting can greatly improve the performance of VASP for DFT.       |
|     The default, NCORE=1 might be grossly inefficient on modern             |
|     multi-core architectures or massively parallel machines. Do your        |
|     Unfortunately you need to use the default for GW and RPA                |
|     calculations (for HF NCORE is supported but not extensively tested      |
|     yet).                                                                   |

   TITEL  = PAW_PBE C_GW 28Sep2005
   POMASS =   12.011; ZVAL   =    4.000    mass and valenz
   ENMAX  =  413.992; ENMIN  =  310.494 eV

   TITEL  = PAW_PBE Mg_pv_GW 20Apr2010
   POMASS =   24.305; ZVAL   =    8.000    mass and valenz
   ENMAX  =  403.929; ENMIN  =  302.947 eV

   TITEL  = PAW_PBE O_GW_new 19Mar2012
   POMASS =   16.000; ZVAL   =    6.000    mass and valenz
   ENMAX  =  434.431; ENMIN  =  325.824 eV

  PAW_PBE C_GW 28Sep2005                :
  PAW_PBE Mg_pv_GW 20Apr2010            :
  PAW_PBE O_GW_new 19Mar2012            :

 POSCAR:  C  O Mg  O
  positions in direct lattice
 exchange correlation table for  LEXCH =        8
   RHO(1)=    0.500       N(1)  =     2000
   RHO(2)=  100.500       N(2)  =     4000

 ion  position               nearest neighbor table
   1  0.500  0.500  0.579-  34 1.15
   2  0.000  0.750  0.368-  24 2.11  21 2.11  29 2.11  20 2.11  18 2.15
   3  0.250  0.000  0.368-  28 2.11  25 2.11  21 2.11  20 2.11  19 2.15
   4  0.000  0.000  0.465-  18 2.11  19 2.11  22 2.11  27 2.11  20 2.11
   5  0.250  0.750  0.465-  21 2.11  19 2.11  18 2.11  23 2.11  26 2.11
   6  0.000  0.250  0.368-  24 2.11  25 2.11  33 2.11  20 2.11  22 2.15
   7  0.250  0.500  0.368-  32 2.11  25 2.11  21 2.11  24 2.11  23 2.15
   8  0.000  0.500  0.465-  23 2.10  31 2.10  24 2.11  22 2.11  18 2.11
   9  0.250  0.250  0.465-  25 2.11  22 2.11  19 2.11  23 2.11  30 2.11
  10  0.500  0.750  0.368-  32 2.11  29 2.11  21 2.11  28 2.11  26 2.15
  11  0.750  0.000  0.368-  28 2.11  29 2.11  33 2.11  20 2.11  27 2.15
  12  0.500  0.000  0.465-  26 2.10  30 2.10  28 2.11  19 2.11  27 2.11
  13  0.750  0.750  0.465-  29 2.11  27 2.11  18 2.11  26 2.11  31 2.11
  14  0.500  0.250  0.368-  32 2.11  25 2.11  33 2.11  28 2.11  30 2.15
  15  0.750  0.500  0.368-  32 2.11  29 2.11  33 2.11  24 2.11  31 2.15
  16  0.500  0.500  0.467-  23 2.12  26 2.12  30 2.12  31 2.12  32 2.14
  17  0.750  0.250  0.465-  33 2.11  27 2.11  22 2.11  31 2.11  30 2.11
  18  0.000  0.750  0.467-   4 2.11   5 2.11  13 2.11   8 2.11   2 2.15
  19  0.250  0.000  0.467-   4 2.11   5 2.11   9 2.11  12 2.11   3 2.15
  20  0.000  0.000  0.368-   4 2.11   3 2.11   2 2.11   6 2.11  11 2.11
  21  0.250  0.750  0.368-   5 2.11   3 2.11   2 2.11   7 2.11  10 2.11
  22  0.000  0.250  0.467-   4 2.11   9 2.11  17 2.11   8 2.11   6 2.15
  23  0.249  0.500  0.467-   8 2.10   5 2.11   9 2.11  16 2.12   7 2.15
  24  0.000  0.500  0.368-   8 2.11   6 2.11   2 2.11   7 2.11  15 2.11
  25  0.250  0.250  0.368-   9 2.11   6 2.11   3 2.11   7 2.11  14 2.11
  26  0.500  0.751  0.467-  12 2.10   5 2.11  13 2.11  16 2.12  10 2.15
  27  0.750  0.000  0.467-   4 2.11  13 2.11  17 2.11  12 2.11  11 2.15
  28  0.500  0.000  0.368-  12 2.11  11 2.11   3 2.11  10 2.11  14 2.11
  29  0.750  0.750  0.368-  13 2.11  11 2.11   2 2.11  10 2.11  15 2.11
  30  0.500  0.249  0.467-  12 2.10   9 2.11  17 2.11  16 2.12  14 2.15
  31  0.751  0.500  0.467-   8 2.10  13 2.11  17 2.11  16 2.12  15 2.15
  32  0.500  0.500  0.368-   7 2.11  10 2.11  14 2.11  15 2.11  16 2.14
  33  0.750  0.250  0.368-  17 2.11  11 2.11   6 2.11  15 2.11  14 2.11
  34  0.500  0.500  0.632-   1 1.15

  LATTYP: Found a simple tetragonal cell.
 ALAT       =     8.4409846542
 C/A-ratio  =     2.5754268781

  Lattice vectors:

 A1 = (   8.4409846542,   0.0000000000,   0.0000000000)
 A2 = (   0.0000000000,   8.4409846542,   0.0000000000)
 A3 = (   0.0000000000,   0.0000000000,  21.7391387558)

Analysis of symmetry for initial positions (statically):
 Subroutine PRICEL returns:
 Original cell was already a primitive cell.

 Routine SETGRP: Setting up the symmetry group for a
 simple tetragonal supercell.

 Subroutine GETGRP returns: Found  8 space group operations
 (whereof  8 operations were pure point group operations)
 out of a pool of 16 trial point group operations.

The static configuration has the point symmetry C_4v.

Analysis of symmetry for dynamics (positions and initial velocities):
 Subroutine PRICEL returns:
 Original cell was already a primitive cell.

 Routine SETGRP: Setting up the symmetry group for a
 simple tetragonal supercell.

 Subroutine GETGRP returns: Found  8 space group operations
 (whereof  8 operations were pure point group operations)
 out of a pool of 16 trial point group operations.

The dynamic configuration has the point symmetry C_4v.

 Subroutine INISYM returns: Found  8 space group operations
 (whereof  8 operations are pure point group operations),
 and found     1 'primitive' translations

                                     Primitive cell

  volume of cell :    1548.9185

  direct lattice vectors                    reciprocal lattice vectors
     8.440984654  0.000000000  0.000000000     0.118469591  0.000000000  0.000000000
     0.000000000  8.440984654  0.000000000     0.000000000  0.118469591  0.000000000
     0.000000000  0.000000000 21.739138756     0.000000000  0.000000000  0.045999982

  length of vectors
     8.440984654  8.440984654 21.739138756     0.118469591  0.118469591  0.045999982

  position of ions in fractional coordinates (direct lattice)
     0.500000000  0.500000000  0.579246450
     0.000000000  0.749939268  0.368314410
     0.250060732  0.000000000  0.368314410
     0.000000000  0.000000000  0.465122975
     0.249858327  0.750141673  0.464950515
     0.000000000  0.250060732  0.368314410
     0.250378379  0.500000000  0.368448135
     0.000000000  0.500000000  0.464995389
     0.249858327  0.249858327  0.464950515
     0.500000000  0.749621621  0.368448135
     0.749939268  0.000000000  0.368314410
     0.500000000  0.000000000  0.464995389
     0.750141673  0.750141673  0.464950515
     0.500000000  0.250378379  0.368448135
     0.749621621  0.500000000  0.368448135
     0.500000000  0.500000000  0.466959464
     0.750141673  0.249858327  0.464950515
     0.000000000  0.750218533  0.467314953
     0.249781467  0.000000000  0.467314953
     0.000000000  0.000000000  0.368046197
     0.249945770  0.750054230  0.368094495
     0.000000000  0.249781467  0.467314953
     0.248822710  0.500000000  0.467220380
     0.000000000  0.500000000  0.367999859
     0.249945770  0.249945770  0.368094495
     0.500000000  0.751177290  0.467220380
     0.750218533  0.000000000  0.467314953
     0.500000000  0.000000000  0.367999859
     0.750054230  0.750054230  0.368094495
     0.500000000  0.248822710  0.467220380
     0.751177290  0.500000000  0.467220380
     0.500000000  0.500000000  0.368459745
     0.750054230  0.249945770  0.368094495
     0.500000000  0.500000000  0.632000141

  ion indices of the primitive-cell ions
   primitive index   ion index
                 1           1
                 2           2
                 3           3
                 4           4
                 5           5
                 6           6
                 7           7
                 8           8
                 9           9
                10          10
                11          11
                12          12
                13          13
                14          14
                15          15
                16          16
                17          17
                18          18
                19          19
                20          20
                21          21
                22          22
                23          23
                24          24
                25          25
                26          26
                27          27
                28          28
                29          29
                30          30
                31          31
                32          32
                33          33
                34          34

 KPOINTS: Automatically generated mesh

Automatic generation of k-mesh.
 Grid dimensions read from file:
 generate k-points for:    1    1    1

 Generating k-lattice:

  Cartesian coordinates                     Fractional coordinates (reciprocal lattice)
     0.118469591  0.000000000  0.000000000     1.000000000  0.000000000  0.000000000
     0.000000000  0.118469591  0.000000000     0.000000000  1.000000000  0.000000000
     0.000000000  0.000000000  0.045999982     0.000000000  0.000000000  1.000000000

  Length of vectors
     0.118469591  0.118469591  0.045999982

  Shift w.r.t. Gamma in fractional coordinates (k-lattice)
     0.000000000  0.000000000  0.000000000

 Subroutine IBZKPT returns following result:

 Found      1 irreducible k-points:

 Following reciprocal coordinates:
            Coordinates               Weight
  0.000000  0.000000  0.000000      1.000000

 Following cartesian coordinates:
            Coordinates               Weight
  0.000000  0.000000  0.000000      1.000000

 Subroutine IBZKPT_HF returns following result:

 Found      1 k-points in 1st BZ
 the following      1 k-points will be used (e.g. in the exchange kernel)
 Following reciprocal coordinates:   # in IRBZ
  0.000000  0.000000  0.000000    1.00000000   1 t-inv F

 SYSTEM =  unknown system
 POSCAR =   C  O Mg  O

 Startparameter for this run:
   NWRITE =      2    write-flag & timer
   PREC   = normal    normal or accurate (medium, high low for compatibility)
   ISTART =      1    job   : 0-new  1-cont  2-samecut
   ICHARG =      0    charge: 1-file 2-atom 10-const
   ISPIN  =      1    spin polarized calculation?
   LNONCOLLINEAR =      F non collinear calculations
   LSORBIT =      F    spin-orbit coupling
   INIWAV =      1    electr: 0-lowe 1-rand  2-diag
   LASPH  =      F    aspherical Exc in radial PAW
 Electronic Relaxation 1
   ENCUT  =  500.0 eV  36.75 Ry    6.06 a.u.  15.39 15.39 39.64*2*pi/ulx,y,z
   ENINI  =  500.0     initial cutoff
   ENAUG  = 1139.6 eV  augmentation charge cutoff
[...]
   0.50000000  0.00000000  0.46499539
   0.75014167  0.75014167  0.46495051
   0.50000000  0.25037838  0.36844813
   0.74962162  0.50000000  0.36844813
   0.50000000  0.50000000  0.46695946
   0.75014167  0.24985833  0.46495051
   0.00000000  0.75021853  0.46731495
   0.24978147  0.00000000  0.46731495
   0.00000000  0.00000000  0.36804620
   0.24994577  0.75005423  0.36809449
   0.00000000  0.24978147  0.46731495
   0.24882271  0.50000000  0.46722038
   0.00000000  0.50000000  0.36799986
   0.24994577  0.24994577  0.36809449
   0.50000000  0.75117729  0.46722038
   0.75021853  0.00000000  0.46731495
   0.50000000  0.00000000  0.36799986
   0.75005423  0.75005423  0.36809449
   0.50000000  0.24882271  0.46722038
   0.75117729  0.50000000  0.46722038
   0.50000000  0.50000000  0.36845975
   0.75005423  0.24994577  0.36809449
   0.50000000  0.50000000  0.63200014

 position of ions in cartesian coordinates  (Angst):
   4.22049233  4.22049233 12.59231894
   0.00000000  6.33022585  8.00683807
   2.11075880  0.00000000  8.00683807
   0.00000000  0.00000000 10.11137288
   2.10905031  6.33193435 10.10762375
   0.00000000  2.11075880  8.00683807
   2.11344006  4.22049233  8.00974512
   0.00000000  4.22049233 10.10859928
   2.10905031  2.10905031 10.10762375
   4.22049233  6.32754460  8.00974512
   6.33022585  0.00000000  8.00683807
   4.22049233  0.00000000 10.10859928
   6.33193435  6.33193435 10.10762375
   4.22049233  2.11344006  8.00974512
   6.32754460  4.22049233  8.00974512
   4.22049233  4.22049233 10.15129658
   6.33193435  2.10905031 10.10762375
   0.00000000  6.33258312 10.15902460
   2.10840153  0.00000000 10.15902460
   0.00000000  0.00000000  8.00100734
   2.10978841  6.33119624  8.00205730
   0.00000000  2.10840153 10.15902460
   2.10030867  4.22049233 10.15696867
   0.00000000  4.22049233  8.00000000
   2.10978841  2.10978841  8.00205730
   4.22049233  6.34067598 10.15696867
   6.33258312  0.00000000 10.15902460
   4.22049233  0.00000000  8.00000000
   6.33119624  6.33119624  8.00205730
   4.22049233  2.10030867 10.15696867
   6.34067598  4.22049233 10.15696867
   4.22049233  4.22049233  8.00999753
   6.33119624  2.10978841  8.00205730
   4.22049233  4.22049233 13.73913876

 use parallel FFT for orbitals z direction half grid
 k-point   1 :   0.0000 0.0000 0.0000  plane waves:   19730

 maximum and minimum number of plane-waves per node :      9867     9863

 maximum number of plane-waves:     19730
 maximum index in each direction:
   IXMAX=   15   IYMAX=   15   IZMAX=   39
   IXMIN=  -15   IYMIN=  -15   IZMIN=    0

 parallel 3D FFT for wavefunctions:
    minimum data exchange during FFTs selected (reduces bandwidth)
 parallel 3D FFT for charge:
    minimum data exchange during FFTs selected (reduces bandwidth)

 Radii for the augmentation spheres in the non-local exchange
 for species   1 augmentation radius   0.874 (default was   0.699)
       energy cutoff for augmentation   2000.0
 for species   2 augmentation radius   1.037 (default was   0.829)
       energy cutoff for augmentation   2000.0
 for species   3 augmentation radius   0.846 (default was   0.677)
       energy cutoff for augmentation   2000.0

 real space projection operators:
  max/ min on nodes  :       2092.55       2049.91

 Maximum index for augmentation-charges in exchange          411
  SETUP_FOCK is finished

 Broyden mixing: mesh for mixing (old mesh)
   NGX = 31   NGY = 31   NGZ = 79
  (NGX  = 96   NGY  = 96   NGZ  =240)
  gives a total of  75919 points

 charge density for first step will be calculated from the start-wavefunctions

 Maximum index for augmentation-charges          274 (set IRDMAX)

 initial charge from wavefunction

--------------------------------------- Iteration      1(   1)  ---------------------------------------

 eigenvalue-minimisations  :     0
 total energy-change (2. order) :-0.3646521E+03  (-0.5269282E+01)
 number of electron     233.9999286 magnetization
 augmentation part       76.6681848 magnetization

 Free energy of the ion-electron system (eV)
  alpha Z        PSCENC =       200.63487369
  Ewald energy   TEWEN  =     64884.13705603
  -Hartree energ DENC   =    -83431.09555949
  -exchange      EXHF   =      3303.68909792
  -V(xc)+E(xc)   XCENC  =         0.00000000
  PAW double counting   =     19927.58160778   -21377.66484438
  entropy T*S    EENTRO =         0.00000000
  eigenvalues    EBANDS =     -7790.98656606
  atomic energy  EATOM  =     23919.05224044
  free energy    TOTEN  =      -364.65209407 eV

  energy without entropy =     -364.65209407  energy(sigma->0) =     -364.65209407
  exchange ACFDT corr.  =         0.00000000  see jH, gK, PRB 81, 115126

[...]

--------------------------------------- Iteration      1(  31)  ---------------------------------------

 eigenvalue-minimisations  :     0
 total energy-change (2. order) :-0.9433788E-06  (-0.7080041E-06)
 number of electron     233.9999281 magnetization
 augmentation part       76.5108931 magnetization

 Free energy of the ion-electron system (eV)
  alpha Z        PSCENC =       200.63487369
  Ewald energy   TEWEN  =     64884.13705603
  -Hartree energ DENC   =    -83577.90186799
  -exchange      EXHF   =      3340.59113354
  -V(xc)+E(xc)   XCENC  =         0.00000000
  PAW double counting   =     20219.57126623   -21672.91670275
  entropy T*S    EENTRO =         0.00000000
  eigenvalues    EBANDS =     -7687.62048242
  atomic energy  EATOM  =     23919.05224044
  free energy    TOTEN  =      -374.45141632 eV

  energy without entropy =     -374.45141632  energy(sigma->0) =     -374.45141632
  exchange ACFDT corr.  =         0.00000000  see jH, gK, PRB 81, 115126

  average scaling for gradient   0.7677

 average (electrostatic) potential at core
  the test charge radii are     0.6991  0.8294  0.6768
  (the norm of the test charge is              1.0000)
       1 -43.7916       2 -16.7022       3 -16.7022       4 -16.3966       5 -16.4256
       6 -16.7022       7 -16.6883       8 -16.3760       9 -16.4256      10 -16.6883
      11 -16.7022      12 -16.3760      13 -16.4256      14 -16.6883      15 -16.6883
      16 -16.3754      17 -16.4256      18 -91.8889      19 -91.8889      20 -92.1557
      21 -92.1592      22 -91.8889      23 -91.8810      24 -92.1427      25 -92.1591
      26 -91.8810      27 -91.8889      28 -92.1427      29 -92.1591      30 -91.8810
      31 -91.8810      32 -92.1343      33 -92.1592      34 -98.6632

 E-fermi :  -8.2161     XC(G=0):   0.0000     alpha+bet : -2.7082

 Fermi energy:        -8.2160833450

 k-point     1 :       0.0000    0.0000    0.0000
  band No.  band energies     occupation
      1     -58.1260      2.00000
      2     -58.1238      2.00000
      3     -58.1237      2.00000
      4     -58.1221      2.00000
      5     -58.1114      2.00000
      6     -58.1096      2.00000
      7     -58.1096      2.00000
      8     -58.1075      2.00000
      9     -58.1027      2.00000
     10     -58.1018      2.00000
     11     -58.0943      2.00000
     12     -58.0943      2.00000
     13     -58.0781      2.00000
     14     -58.0781      2.00000
     15     -58.0774      2.00000
     16     -58.0769      2.00000
     17     -58.0744      2.00000
     18     -58.0735      2.00000
     19     -58.0732      2.00000
     20     -58.0732      2.00000
     21     -58.0570      2.00000
     22     -58.0570      2.00000
     23     -58.0489      2.00000
     24     -58.0478      2.00000
     25     -57.8523      2.00000
     26     -57.8514      2.00000
     27     -57.8514      2.00000
     28     -57.8508      2.00000
     29     -57.8215      2.00000
     30     -57.8165      2.00000
     31     -57.8165      2.00000
     32     -57.8110      2.00000
     33     -57.8110      2.00000
     34     -57.8063      2.00000
     35     -57.8059      2.00000
     36     -57.8051      2.00000
     37     -57.8048      2.00000
     38     -57.8018      2.00000
     39     -57.8018      2.00000
     40     -57.7965      2.00000
     41     -57.7728      2.00000
     42     -57.7728      2.00000
     43     -57.7570      2.00000
     44     -57.7570      2.00000
     45     -57.7549      2.00000
     46     -57.7549      2.00000
     47     -57.7481      2.00000
     48     -57.7480      2.00000
     49     -39.5665      2.00000
     50     -30.5419      2.00000
     51     -29.8367      2.00000
     52     -29.8367      2.00000
     53     -29.8211      2.00000
     54     -29.8148      2.00000
     55     -29.6214      2.00000
     56     -29.5974      2.00000
     57     -29.5948      2.00000
     58     -29.3232      2.00000
     59     -29.3232      2.00000
     60     -29.2611      2.00000
[...]
    178       9.2780      0.00000
    179       9.3737      0.00000
    180       9.3993      0.00000
    181       9.4368      0.00000
    182       9.7884      0.00000
    183       9.8855      0.00000
    184       9.9659      0.00000
    185      10.3396      0.00000
    186      10.3741      0.00000
    187      11.1888      0.00000
    188      11.6413      0.00000
    189      11.7334      0.00000
    190      11.8516      0.00000
    191      11.8612      0.00000
    192      12.8118      0.00000

 soft charge-density along one line, spin component           1
         0         1         2         3         4         5         6         7         8         9
 total charge-density along one line

------------------------ aborting loop because EDIFF is reached ----------------------------------------

 VOLUME and BASIS-vectors are now :
  energy-cutoff  :      500.00
  volume of cell :     1548.92
      direct lattice vectors                 reciprocal lattice vectors
     8.440984654  0.000000000  0.000000000     0.118469591  0.000000000  0.000000000
     0.000000000  8.440984654  0.000000000     0.000000000  0.118469591  0.000000000
     0.000000000  0.000000000 21.739138756     0.000000000  0.000000000  0.045999982

  length of vectors
     8.440984654  8.440984654 21.739138756     0.118469591  0.118469591  0.045999982

 FORCES acting on ions:
    Electron-Ion                     Ewald-Force                    Non-Local-Force
   0.231E-05 -.267E-05 -.531E+03   -.633E-14 0.184E-14 0.508E+03   0.564E-23 -.130E-22 0.269E+02
   -.463E-05 -.286E+01 0.970E+03   -.918E-13 0.283E+01 -.961E+03   -.208E-22 0.934E-02 -.242E+01
   0.286E+01 0.471E-05 0.970E+03   -.283E+01 -.583E-13 -.961E+03   -.934E-02 -.179E-21 -.242E+01
   0.298E-06 0.109E-05 -.860E+03   0.403E-14 0.676E-13 0.853E+03   0.583E-23 0.808E-23 0.217E+01
   0.180E+02 -.180E+02 -.837E+03   -.182E+02 0.182E+02 0.830E+03   0.326E-01 -.326E-01 0.222E+01
   0.510E-05 0.286E+01 0.970E+03   -.568E-13 -.283E+01 -.961E+03   0.328E-22 -.934E-02 -.242E+01
   0.416E+01 0.686E-05 0.976E+03   -.407E+01 0.569E-13 -.967E+03   -.289E-01 0.228E-21 -.246E+01
   -.198E-05 0.783E-06 -.845E+03   0.525E-13 -.710E-13 0.838E+03   -.676E-22 -.903E-23 0.218E+01
   0.180E+02 0.180E+02 -.837E+03   -.182E+02 -.182E+02 0.830E+03   0.326E-01 0.326E-01 0.222E+01
   -.562E-05 -.416E+01 0.976E+03   0.515E-13 0.407E+01 -.967E+03   -.929E-22 0.289E-01 -.246E+01
   -.286E+01 -.201E-05 0.970E+03   0.283E+01 -.565E-13 -.961E+03   0.934E-02 -.423E-22 -.242E+01
   -.322E-06 0.282E-05 -.845E+03   0.658E-14 0.636E-14 0.838E+03   -.913E-22 -.893E-22 0.218E+01
   -.180E+02 -.180E+02 -.837E+03   0.182E+02 0.182E+02 0.830E+03   -.326E-01 -.326E-01 0.222E+01
   -.515E-05 0.416E+01 0.976E+03   0.114E-12 -.407E+01 -.967E+03   -.360E-21 -.289E-01 -.246E+01
   -.416E+01 0.626E-05 0.976E+03   0.407E+01 0.284E-13 -.967E+03   0.289E-01 -.146E-21 -.246E+01
   -.134E-05 0.343E-05 -.780E+03   0.566E-13 -.740E-14 0.774E+03   -.728E-23 0.111E-22 0.173E+01
   -.180E+02 0.180E+02 -.837E+03   0.182E+02 -.182E+02 0.830E+03   -.326E-01 0.326E-01 0.222E+01
   -.875E-04 -.733E+01 -.670E+03   -.258E-13 0.727E+01 0.675E+03   0.689E-21 0.370E-01 -.273E+01
   0.733E+01 0.869E-04 -.670E+03   -.727E+01 -.389E-14 0.675E+03   -.370E-01 -.391E-21 -.273E+01
   0.214E-05 -.170E-05 0.734E+03   -.141E-13 -.726E-14 -.737E+03   -.982E-23 -.495E-23 0.128E+01
   0.256E+01 -.256E+01 0.739E+03   -.255E+01 0.255E+01 -.742E+03   -.505E-02 0.505E-02 0.132E+01
   0.103E-03 0.733E+01 -.670E+03   -.789E-12 -.727E+01 0.675E+03   0.895E-21 -.370E-01 -.273E+01
   0.236E+02 -.166E-04 -.639E+03   -.233E+02 -.613E-13 0.644E+03   -.181E+00 0.382E-21 -.270E+01
   0.542E-05 -.830E-05 0.739E+03   0.833E-11 -.712E-14 -.742E+03   -.511E-22 0.193E-22 0.126E+01
   0.256E+01 0.256E+01 0.739E+03   -.255E+01 -.255E+01 -.742E+03   -.505E-02 -.505E-02 0.132E+01
   0.212E-04 -.236E+02 -.639E+03   -.371E-13 0.233E+02 0.644E+03   0.936E-22 0.181E+00 -.270E+01
   -.733E+01 -.104E-03 -.670E+03   0.727E+01 -.208E-13 0.675E+03   0.370E-01 -.817E-22 -.273E+01
   0.734E-05 -.683E-05 0.739E+03   -.981E-12 -.840E-11 -.742E+03   0.207E-22 -.227E-22 0.126E+01
   -.256E+01 -.256E+01 0.739E+03   0.255E+01 0.255E+01 -.742E+03   0.505E-02 0.505E-02 0.132E+01
   -.240E-04 0.236E+02 -.639E+03   -.107E-12 -.233E+02 0.644E+03   0.217E-21 -.181E+00 -.270E+01
   -.236E+02 0.237E-04 -.639E+03   0.233E+02 -.142E-13 0.644E+03   0.181E+00 -.219E-21 -.270E+01
   0.283E-05 -.277E-05 0.738E+03   0.852E-13 0.497E-13 -.740E+03   -.245E-22 0.576E-23 0.960E+00
   -.256E+01 0.256E+01 0.739E+03   0.255E+01 -.255E+01 -.742E+03   0.505E-02 -.505E-02 0.132E+01
   0.200E-05 -.226E-05 -.118E+04   -.571E-14 0.161E-15 0.124E+04   0.282E-22 0.321E-22 -.331E+02
   -.223E-04 0.478E-04 0.598E+02   -.319E-13 -.229E-13 0.682E-12   -.252E-16 0.252E-16 -.202E+02

 POSITION                                       TOTAL-FORCE (eV/Angst)
      4.22049      4.22049     12.59232        -0.000000     -0.000000      6.412923
      0.00000      6.33023      8.00684         0.000000     -0.003649      0.730938
      2.11076      0.00000      8.00684         0.003649     -0.000000      0.730938
      0.00000      0.00000     10.11137         0.000000     -0.000000     -0.210634
      2.10905      6.33193     10.10762        -0.028102      0.028102     -0.259736
      0.00000      2.11076      8.00684         0.000000      0.003649      0.730938
      2.11344      4.22049      8.00975        -0.005432     -0.000000      0.755249
      0.00000      4.22049     10.10860         0.000000     -0.000000     -0.233404
      2.10905      2.10905     10.10762        -0.028102     -0.028102     -0.259736
      4.22049      6.32754      8.00975        -0.000000      0.005432      0.755249
      6.33023      0.00000      8.00684        -0.003649     -0.000000      0.730938
      4.22049      0.00000     10.10860        -0.000000     -0.000000     -0.233404
      6.33193      6.33193     10.10762         0.028102      0.028102     -0.259736
      4.22049      2.11344      8.00975         0.000000     -0.005432      0.755249
      6.32754      4.22049      8.00975         0.005432     -0.000000      0.755249
      4.22049      4.22049     10.15130        -0.000000     -0.000000     -0.401321
      6.33193      2.10905     10.10762         0.028102     -0.028102     -0.259736
      0.00000      6.33258     10.15902         0.000000     -0.000561     -0.142844
      2.10840      0.00000     10.15902         0.000561     -0.000000     -0.142844
      0.00000      0.00000      8.00101         0.000000     -0.000000     -0.391675
      2.10979      6.33120      8.00206         0.002422     -0.002422     -0.389781
      0.00000      2.10840     10.15902        -0.000000      0.000561     -0.142844
      2.10031      4.22049     10.15697        -0.002844     -0.000000     -0.129240
      0.00000      4.22049      8.00000         0.000000     -0.000000     -0.393314
      2.10979      2.10979      8.00206         0.002422      0.002422     -0.389781
      4.22049      6.34068     10.15697         0.000000      0.002844     -0.129240
      6.33258      0.00000     10.15902        -0.000561     -0.000000     -0.142844
      4.22049      0.00000      8.00000         0.000000     -0.000000     -0.393314
      6.33120      6.33120      8.00206        -0.002422     -0.002422     -0.389781
      4.22049      2.10031     10.15697         0.000000     -0.002844     -0.129240
      6.34068      4.22049     10.15697         0.002844     -0.000000     -0.129240
      4.22049      4.22049      8.01000         0.000000     -0.000000     -0.388266
      6.33120      2.10979      8.00206        -0.002422      0.002422     -0.389781
      4.22049      4.22049     13.73914         0.000000     -0.000000     -6.025931
    total drift:                               -0.000022      0.000048      0.043959

  FREE ENERGIE OF THE ION-ELECTRON SYSTEM (eV)
  free  energy   TOTEN  =      -374.45141632 eV

  energy  without entropy=     -374.45141632  energy(sigma->0) =     -374.45141632

 writing wavefunctions