 vasp.6.3.0 20Jan22 (build Apr  1 2022 16:44:48) complex
 executed on        HPECrayEX_GCC date 2022.09.24  18:10:48

 INCAR:
   SYSTEM = MgO-rocksalt
   ISMEAR = 0
   SIGMA = 0.05
   EDIFF = 1E-6
   ALGO = ALL
   ISTART = 0
   IBRION = 2
   NSW = 1000
   ISYM = 2
   ISIF = 2
   EDIFFG = -0.01
   DIPOL = 0.5 0.5 0.5
   IDIPOL = 3
   LDIPOL = .TRUE.
   GGA = RE
   LUSE_VDW = .TRUE.
   AGGAC = 0.0
   ENCUT = 600
   PREC = Normal
   LASPH = .TRUE.
   LREAL = .FALSE.
   ISPIN = 1
   NELM = 200
   NELMIN = 8
   NCORE = 4
   KPAR = 2
   LWAVE = .FALSE.
   LCHARG = .FALSE.

 POTCAR:    PAW_PBE Mg_pv 13Apr2007
 POTCAR:    PAW_PBE O 08Apr2002
|               ----> ADVICE to this user running VASP <----                  |
|     You have switched on vdW-DFT.                                           |
|     This routine was written and supplied by Jiri Klimes. We recommend      |
|     that you carefully read and cite the following publications:            |
|       J. Klimes, D.R. Bowler, A. Michelides                                 |
|          J. Phys.: Cond Matt. 22 022201 (2010)                              |
|       J. Klimes, D.R. Bowler, A. Michelides                                 |
|          Phys. Rev. B. 83, 195131 (2011)                                    |
|     and references therein.                                                 |

   TITEL  = PAW_PBE Mg_pv 13Apr2007
   POMASS =   24.305; ZVAL   =    8.000    mass and valenz
   ENMAX  =  403.929; ENMIN  =  302.947 eV

   TITEL  = PAW_PBE O 08Apr2002
   POMASS =   16.000; ZVAL   =    6.000    mass and valenz
   ENMAX  =  400.000; ENMIN  =  300.000 eV

  PAW_PBE Mg_pv 13Apr2007               :
  PAW_PBE O 08Apr2002                   :

 POSCAR: Mg  O
  positions in direct lattice
 exchange correlation table for  LEXCH =       40
   RHO(1)=    0.500       N(1)  =     2000
   RHO(2)=  100.500       N(2)  =     4000

 ion  position               nearest neighbor table
   1  0.000  0.750  0.350-  33 2.14  35 2.14  36 2.14  43 2.14  52 2.14
   2  0.250  0.000  0.350-  34 2.14  35 2.14  36 2.14  44 2.14  51 2.14
   3  0.000  0.000  0.450-  35 2.14  34 2.14  33 2.14  41 2.14  50 2.14  39 2.14
   4  0.250  0.750  0.450-  36 2.14  34 2.14  33 2.14  42 2.14  49 2.14  40 2.14
   5  0.000  0.750  0.550-  37 2.14  39 2.14  40 2.14  47 2.14  56 2.14  33 2.14
   6  0.250  0.000  0.550-  38 2.14  39 2.14  40 2.14  48 2.14  55 2.14  34 2.14
   7  0.000  0.000  0.650-  39 2.14  38 2.14  37 2.14  45 2.14  54 2.14
   8  0.250  0.750  0.650-  40 2.14  38 2.14  37 2.14  46 2.14  53 2.14
   9  0.000  0.250  0.350-  41 2.14  35 2.14  43 2.14  44 2.14  60 2.14
  10  0.250  0.500  0.350-  42 2.14  36 2.14  43 2.14  44 2.14  59 2.14
  11  0.000  0.500  0.450-  43 2.14  41 2.14  42 2.14  33 2.14  58 2.14  47 2.14
  12  0.250  0.250  0.450-  44 2.14  41 2.14  42 2.14  34 2.14  57 2.14  48 2.14
  13  0.000  0.250  0.550-  45 2.14  39 2.14  47 2.14  48 2.14  64 2.14  41 2.14
  14  0.250  0.500  0.550-  46 2.14  40 2.14  47 2.14  48 2.14  63 2.14  42 2.14
  15  0.000  0.500  0.650-  47 2.14  45 2.14  46 2.14  37 2.14  62 2.14
  16  0.250  0.250  0.650-  48 2.14  45 2.14  46 2.14  38 2.14  61 2.14
  17  0.500  0.750  0.350-  49 2.14  36 2.14  51 2.14  52 2.14  59 2.14
  18  0.750  0.000  0.350-  50 2.14  35 2.14  51 2.14  52 2.14  60 2.14
  19  0.500  0.000  0.450-  51 2.14  49 2.14  50 2.14  34 2.14  57 2.14  55 2.14
  20  0.750  0.750  0.450-  52 2.14  49 2.14  50 2.14  33 2.14  58 2.14  56 2.14
  21  0.500  0.750  0.550-  53 2.14  40 2.14  55 2.14  56 2.14  63 2.14  49 2.14
  22  0.750  0.000  0.550-  54 2.14  39 2.14  55 2.14  56 2.14  64 2.14  50 2.14
  23  0.500  0.000  0.650-  55 2.14  53 2.14  54 2.14  38 2.14  61 2.14
  24  0.750  0.750  0.650-  56 2.14  53 2.14  54 2.14  37 2.14  62 2.14
  25  0.500  0.250  0.350-  57 2.14  51 2.14  44 2.14  59 2.14  60 2.14
  26  0.750  0.500  0.350-  58 2.14  52 2.14  43 2.14  59 2.14  60 2.14
  27  0.500  0.500  0.450-  59 2.14  49 2.14  57 2.14  58 2.14  42 2.14  63 2.14
  28  0.750  0.250  0.450-  60 2.14  50 2.14  57 2.14  58 2.14  41 2.14  64 2.14
  29  0.500  0.250  0.550-  61 2.14  55 2.14  48 2.14  63 2.14  64 2.14  57 2.14
  30  0.750  0.500  0.550-  62 2.14  56 2.14  47 2.14  63 2.14  64 2.14  58 2.14
  31  0.500  0.500  0.650-  63 2.14  53 2.14  61 2.14  62 2.14  46 2.14
  32  0.750  0.250  0.650-  64 2.14  54 2.14  61 2.14  62 2.14  45 2.14
  33  0.000  0.750  0.450-   1 2.14   3 2.14   4 2.14  11 2.14  20 2.14   5 2.14
  34  0.250  0.000  0.450-   2 2.14   3 2.14   4 2.14  12 2.14  19 2.14   6 2.14
  35  0.000  0.000  0.350-   3 2.14   2 2.14   1 2.14   9 2.14  18 2.14
  36  0.250  0.750  0.350-   4 2.14   2 2.14   1 2.14  10 2.14  17 2.14
  37  0.000  0.750  0.650-   5 2.14   7 2.14   8 2.14  15 2.14  24 2.14
  38  0.250  0.000  0.650-   6 2.14   7 2.14   8 2.14  16 2.14  23 2.14
  39  0.000  0.000  0.550-   7 2.14   6 2.14   5 2.14  13 2.14  22 2.14   3 2.14
  40  0.250  0.750  0.550-   8 2.14   6 2.14   5 2.14  14 2.14  21 2.14   4 2.14
  41  0.000  0.250  0.450-   9 2.14   3 2.14  11 2.14  12 2.14  28 2.14  13 2.14
  42  0.250  0.500  0.450-  10 2.14   4 2.14  11 2.14  12 2.14  27 2.14  14 2.14
  43  0.000  0.500  0.350-  11 2.14   9 2.14  10 2.14   1 2.14  26 2.14
  44  0.250  0.250  0.350-  12 2.14   9 2.14  10 2.14   2 2.14  25 2.14
  45  0.000  0.250  0.650-  13 2.14   7 2.14  15 2.14  16 2.14  32 2.14
  46  0.250  0.500  0.650-  14 2.14   8 2.14  15 2.14  16 2.14  31 2.14
  47  0.000  0.500  0.550-  15 2.14  13 2.14  14 2.14   5 2.14  30 2.14  11 2.14
  48  0.250  0.250  0.550-  16 2.14  13 2.14  14 2.14   6 2.14  29 2.14  12 2.14
  49  0.500  0.750  0.450-  17 2.14   4 2.14  19 2.14  20 2.14  27 2.14  21 2.14
  50  0.750  0.000  0.450-  18 2.14   3 2.14  19 2.14  20 2.14  28 2.14  22 2.14
  51  0.500  0.000  0.350-  19 2.14  17 2.14  18 2.14   2 2.14  25 2.14
  52  0.750  0.750  0.350-  20 2.14  17 2.14  18 2.14   1 2.14  26 2.14
  53  0.500  0.750  0.650-  21 2.14   8 2.14  23 2.14  24 2.14  31 2.14
  54  0.750  0.000  0.650-  22 2.14   7 2.14  23 2.14  24 2.14  32 2.14
  55  0.500  0.000  0.550-  23 2.14  21 2.14  22 2.14   6 2.14  29 2.14  19 2.14
  56  0.750  0.750  0.550-  24 2.14  21 2.14  22 2.14   5 2.14  30 2.14  20 2.14
  57  0.500  0.250  0.450-  25 2.14  19 2.14  12 2.14  27 2.14  28 2.14  29 2.14
  58  0.750  0.500  0.450-  26 2.14  20 2.14  11 2.14  27 2.14  28 2.14  30 2.14
  59  0.500  0.500  0.350-  27 2.14  17 2.14  25 2.14  26 2.14  10 2.14
  60  0.750  0.250  0.350-  28 2.14  18 2.14  25 2.14  26 2.14   9 2.14
  61  0.500  0.250  0.650-  29 2.14  23 2.14  16 2.14  31 2.14  32 2.14
  62  0.750  0.500  0.650-  30 2.14  24 2.14  15 2.14  31 2.14  32 2.14
  63  0.500  0.500  0.550-  31 2.14  21 2.14  29 2.14  30 2.14  14 2.14  27 2.14
  64  0.750  0.250  0.550-  32 2.14  22 2.14  29 2.14  30 2.14  13 2.14  28 2.14

  LATTYP: Found a simple tetragonal cell.
 ALAT       =     8.5461136257
 C/A-ratio  =     2.5051837779

  Lattice vectors:

 A1 = (   8.5461136257,   0.0000000000,   0.0000000000)
 A2 = (   0.0000000000,   8.5461136257,   0.0000000000)
 A3 = (   0.0000000000,   0.0000000000,  21.4095852193)

Analysis of symmetry for initial positions (statically):
 Subroutine PRICEL returns following result:

[...]

   8 primitive cells build up your supercell.

 Routine SETGRP: Setting up the symmetry group for a
 simple tetragonal supercell.

 Subroutine GETGRP returns: Found 16 space group operations
 (whereof  8 operations were pure point group operations)
 out of a pool of 16 trial point group operations.

The static configuration has the point symmetry C_4v.
 The point group associated with its full space group is D_4h.

Analysis of symmetry for dynamics (positions and initial velocities):
 Subroutine PRICEL returns following result:

[...]

The dynamic configuration has the point symmetry C_4v.
 The point group associated with its full space group is D_4h.

Analysis of constrained symmetry for selective dynamics:
 Subroutine PRICEL returns following result:

  LATTYP: Found a simple tetragonal cell.
 ALAT       =     3.0215074488
 C/A-ratio  =     7.0857297499

  Lattice vectors:

 A1 = (   2.1365284064,  -2.1365284064,   0.0000000000)
 A2 = (   2.1365284064,   2.1365284064,   0.0000000000)
 A3 = (   0.0000000000,   0.0000000000,  21.4095852193)

   8 primitive cells build up your supercell.

 Routine SETGRP: Setting up the symmetry group for a
 simple tetragonal supercell.

 Subroutine GETGRP returns: Found  8 space group operations
 (whereof  8 operations were pure point group operations)
 out of a pool of 16 trial point group operations.

The constrained configuration has the point symmetry C_4v.

 Subroutine INISYM returns: Found  8 space group operations
 (whereof  8 operations are pure point group operations),
 and found     8 'primitive' translations

                                     Primitive cell

  volume of cell :     195.4590

  direct lattice vectors                    reciprocal lattice vectors
     2.136528406 -2.136528406  0.000000000     0.234024504 -0.234024504  0.000000000
     2.136528406  2.136528406  0.000000000     0.234024504  0.234024504 -0.000000000
     0.000000000  0.000000000 21.409585219    -0.000000000  0.000000000  0.046708051

  length of vectors
     3.021507449  3.021507449 21.409585219     0.330960627  0.330960627  0.046708051

  position of ions in fractional coordinates (direct lattice)
     0.500000000  0.500000000  0.350310383
     0.000000000  0.000000000  0.450103461
     0.500000000  0.500000000  0.549896539
     0.000000000  0.000000000  0.649689617
     0.500000000  0.500000000  0.450103461
     0.000000000  0.000000000  0.350310383
     0.500000000  0.500000000  0.649689617
     0.000000000  0.000000000  0.549896539

  ion indices of the primitive-cell ions
   primitive index   ion index
                 1           1
                 2           3
                 3           5
                 4           7
                 5          33
                 6          35
                 7          37
                 8          39

 KPOINTS: pymatgen v2020.8.13 with grid density =

Automatic generation of k-mesh.
 Grid dimensions read from file:
 generate k-points for:    2    2    1

 Generating k-lattice:

  Cartesian coordinates                     Fractional coordinates (reciprocal lattice)
     0.058506126  0.000000000  0.000000000     0.500000000  0.000000000  0.000000000
     0.000000000  0.058506126  0.000000000     0.000000000  0.500000000  0.000000000
     0.000000000  0.000000000  0.046708051     0.000000000  0.000000000  1.000000000

  Length of vectors
     0.058506126  0.058506126  0.046708051

  Shift w.r.t. Gamma in fractional coordinates (k-lattice)
     0.000000000  0.000000000  0.000000000

 Subroutine IBZKPT returns following result:

 Found      3 irreducible k-points:

 Following reciprocal coordinates:
            Coordinates               Weight
  0.000000  0.000000  0.000000      1.000000
  0.500000  0.000000  0.000000      2.000000
  0.500000  0.500000  0.000000      1.000000

 Following cartesian coordinates:
            Coordinates               Weight
  0.000000  0.000000  0.000000      1.000000
[...]
      2     -42.3192      2.00000
      3     -42.3192      2.00000
      4     -42.3192      2.00000
      5     -42.3162      2.00000
      6     -42.3162      2.00000
      7     -42.3162      2.00000
      8     -42.3162      2.00000
      9     -42.2242      2.00000
     10     -42.2242      2.00000
     11     -42.2242      2.00000
     12     -42.2242      2.00000
     13     -42.2101      2.00000
     14     -42.2101      2.00000
     15     -42.2101      2.00000
     16     -42.2101      2.00000
     17     -42.2047      2.00000
     18     -42.2047      2.00000
     19     -42.2047      2.00000
     20     -42.2047      2.00000
     21     -42.1904      2.00000
     22     -42.1904      2.00000
     23     -42.1904      2.00000
     24     -42.1904      2.00000
     25     -42.1671      2.00000
     26     -42.1671      2.00000
     27     -42.1671      2.00000
     28     -42.1671      2.00000
     29     -42.1640      2.00000
     30     -42.1640      2.00000
     31     -42.1640      2.00000
     32     -42.1640      2.00000
     33     -42.0731      2.00000
     34     -42.0731      2.00000
     35     -42.0731      2.00000
     36     -42.0731      2.00000
     37     -42.0590      2.00000
     38     -42.0590      2.00000
     39     -42.0590      2.00000
     40     -42.0590      2.00000
     41     -42.0535      2.00000
     42     -42.0535      2.00000
     43     -42.0535      2.00000
     44     -42.0535      2.00000
     45     -42.0391      2.00000
     46     -42.0391      2.00000
     47     -42.0391      2.00000
     48     -42.0391      2.00000
     49     -41.7632      2.00000
     50     -41.7632      2.00000
     51     -41.7632      2.00000
     52     -41.7632      2.00000
     53     -41.7496      2.00000
     54     -41.7496      2.00000
     55     -41.7496      2.00000
     56     -41.7496      2.00000
     57     -41.7464      2.00000
     58     -41.7464      2.00000
     59     -41.7464      2.00000
     60     -41.7464      2.00000
[...]
    306       8.7412      0.00000
    307       8.7431      0.00000
    308       8.7438      0.00000
    309       8.8308      0.00000
    310       8.8314      0.00000
    311       8.8318      0.00000
    312       8.8319      0.00000
    313       9.0118      0.00000
    314       9.0118      0.00000
    315       9.0118      0.00000
    316       9.0119      0.00000
    317       9.7753      0.00000
    318       9.7882      0.00000
    319       9.7990      0.00000
    320       9.8037      0.00000

 soft charge-density along one line, spin component           1
         0         1         2         3         4         5         6         7         8         9
 total charge-density along one line

------------------------ aborting loop because EDIFF is reached ----------------------------------------

  FORCE on cell =-STRESS in cart. coord.  units (eV):
  Direction    XX          YY          ZZ          XY          YZ          ZX
  Alpha Z   850.71337   850.71337   850.71337
  Ewald  156226.70537156226.70537************    -0.00000    -0.00000     0.00000
  Hartree166330.40357166330.40357************    -0.00000    -0.00000    -0.00000
  E(xc)   -2518.32216 -2518.32216 -2520.80209     0.00000    -0.00000     0.00000
  Local  ************************332451.02029     0.00000    -0.00000    -0.00000
  n-local -2815.31003 -2816.18621 -2834.34369     0.00000    -0.00000    -0.00001
  augment  1078.46347  1078.46346  1069.78891    -0.00000     0.00000     0.00000
  Kinetic  7304.42906  7307.18508  7343.86724     0.00000     0.00000     0.00001
  Fock        0.00000     0.00000     0.00000     0.00000     0.00000     0.00000
  Total     -30.70533   -30.70533    -2.58946     0.00000     0.00000    -0.00000
  in kB     -31.46145   -31.46145    -2.65323     0.00000     0.00000    -0.00000

 VOLUME and BASIS-vectors are now :
  energy-cutoff  :      600.00
  volume of cell :     1563.67
      direct lattice vectors                 reciprocal lattice vectors
     8.546113626  0.000000000  0.000000000     0.117012252  0.000000000  0.000000000
     0.000000000  8.546113626  0.000000000     0.000000000  0.117012252  0.000000000
     0.000000000  0.000000000 21.409585219     0.000000000  0.000000000  0.046708051

  length of vectors
     8.546113626  8.546113626 21.409585219     0.117012252  0.117012252  0.046708051

 FORCES acting on ions:
    Electron-Ion                     Ewald-Force                    Non-Local-Force
   -.231E-13 0.142E-11 0.201E+04   0.888E-14 0.720E-13 -.200E+04   -.517E-24 -.620E-24 -.641E+01
   0.320E-12 -.466E-13 0.201E+04   -.148E-13 0.164E-13 -.200E+04   -.414E-24 -.207E-24 -.641E+01
   -.426E-13 -.326E-12 0.664E+03   0.320E-13 0.000E+00 -.665E+03   -.331E-23 -.331E-23 0.448E+00
   0.364E-12 0.499E-13 0.664E+03   -.133E-13 0.989E-14 -.665E+03   0.827E-24 -.434E-23 0.448E+00
   -.540E-13 0.115E-11 -.669E+03   0.533E-14 -.570E-13 0.669E+03   0.265E-22 0.205E-22 -.275E+00
   0.370E-12 0.200E-13 -.669E+03   0.243E-13 0.107E-13 0.669E+03   0.199E-22 -.596E-22 -.275E+00
   -.462E-13 0.210E-12 -.199E+04   0.533E-13 -.249E-13 0.199E+04   0.993E-23 -.496E-23 0.562E+01
   0.291E-12 0.119E-11 -.199E+04   0.566E-13 0.253E-13 0.199E+04   -.290E-23 -.165E-23 0.562E+01
   -.142E-13 0.412E-12 0.201E+04   0.160E-13 0.160E-13 -.200E+04   -.207E-24 -.517E-24 -.641E+01
   0.321E-12 0.114E-11 0.201E+04   -.218E-13 0.728E-13 -.200E+04   0.620E-24 0.556E-24 -.641E+01
   -.410E-13 0.562E-12 0.664E+03   0.711E-14 0.355E-13 -.665E+03   -.165E-23 0.827E-24 0.448E+00
   0.369E-12 -.190E-12 0.664E+03   -.805E-13 0.566E-13 -.665E+03   -.827E-23 -.258E-24 0.448E+00
   -.355E-13 0.389E-12 -.669E+03   0.284E-13 0.466E-15 0.669E+03   -.397E-22 -.199E-22 -.275E+00
   0.370E-12 0.144E-11 -.669E+03   -.280E-13 0.107E-13 0.669E+03   -.265E-22 0.000E+00 -.275E+00
   -.605E-13 0.107E-11 -.199E+04   0.888E-13 0.142E-13 0.199E+04   -.496E-23 0.000E+00 0.562E+01
   0.291E-12 0.116E-12 -.199E+04   -.305E-13 -.359E-13 0.199E+04   -.434E-23 0.331E-23 0.562E+01
   0.911E-12 0.342E-11 0.201E+04   -.222E-13 0.694E-13 -.200E+04   0.827E-24 0.414E-24 -.641E+01
   0.120E-11 -.366E-13 0.201E+04   -.110E-13 0.151E-13 -.200E+04   -.827E-24 0.291E-24 -.641E+01
   0.811E-12 -.336E-12 0.664E+03   -.355E-14 -.355E-14 -.665E+03   0.331E-23 -.331E-23 0.448E+00
   0.117E-11 0.335E-11 0.664E+03   -.320E-13 0.326E-13 -.665E+03   -.331E-23 -.165E-23 0.448E+00
   0.820E-12 0.718E-12 -.669E+03   -.355E-14 -.151E-15 0.669E+03   0.761E-22 -.993E-23 -.275E+00
   0.121E-11 0.266E-13 -.669E+03   -.443E-13 0.284E-13 0.669E+03   0.165E-23 -.397E-22 -.275E+00
   0.892E-12 0.219E-12 -.199E+04   -.213E-13 -.284E-13 0.199E+04   -.165E-23 0.165E-23 0.562E+01
   0.117E-11 0.232E-11 -.199E+04   0.162E-15 0.115E-13 0.199E+04   -.310E-23 -.331E-23 0.562E+01
   0.904E-12 -.885E-12 0.201E+04   -.417E-13 0.158E-13 -.200E+04   -.620E-24 -.258E-25 -.641E+01
   0.119E-11 -.151E-11 0.201E+04   -.713E-13 0.711E-13 -.200E+04   0.000E+00 -.646E-24 -.641E+01
   0.812E-12 0.452E-12 0.664E+03   -.355E-13 0.355E-13 -.665E+03   0.446E-23 0.827E-24 0.448E+00
   0.117E-11 0.226E-11 0.664E+03   -.498E-13 0.247E-13 -.665E+03   0.414E-23 -.331E-23 0.448E+00
   0.796E-12 0.363E-12 -.669E+03   0.000E+00 0.289E-13 0.669E+03   0.331E-22 0.000E+00 -.275E+00
   0.120E-11 -.440E-11 -.669E+03   -.564E-13 0.000E+00 0.669E+03   -.662E-23 -.265E-22 -.275E+00
   0.917E-12 0.748E-12 -.199E+04   -.604E-13 0.355E-13 0.199E+04   0.662E-23 0.124E-23 0.562E+01
   0.118E-11 0.206E-12 -.199E+04   0.688E-14 -.320E-13 0.199E+04   -.165E-23 0.331E-23 0.562E+01
   -.653E-13 0.530E-12 0.498E+03   0.426E-13 -.261E-13 -.498E+03   0.765E-23 0.414E-23 -.759E-01
   0.109E-12 -.915E-13 0.498E+03   0.102E-13 -.799E-13 -.498E+03   -.372E-23 -.827E-24 -.759E-01
   -.409E-13 -.532E-12 0.151E+04   0.364E-13 -.298E-13 -.151E+04   0.215E-23 -.620E-23 0.357E+01
   0.801E-13 -.539E-12 0.151E+04   0.791E-13 -.669E-14 -.151E+04   0.207E-23 0.372E-23 0.357E+01
   -.657E-13 0.122E-11 -.151E+04   0.771E-12 0.804E-12 0.152E+04   -.343E-22 0.662E-23 -.487E+01
   0.615E-13 0.539E-12 -.151E+04   -.795E-12 -.798E-12 0.152E+04   0.165E-23 -.827E-23 -.487E+01
   -.422E-13 -.314E-12 -.497E+03   0.824E-11 -.814E-11 0.497E+03   -.258E-21 0.000E+00 0.259E+00
   0.134E-12 -.436E-12 -.497E+03   -.812E-11 0.815E-11 0.497E+03   -.291E-21 -.119E-21 0.259E+00
   -.408E-13 0.211E-12 0.498E+03   -.155E-11 0.900E-11 -.498E+03   0.290E-23 -.248E-23 -.759E-01
   0.134E-12 0.700E-12 0.498E+03   0.162E-11 -.900E-11 -.498E+03   0.641E-23 -.248E-23 -.759E-01
   -.347E-13 0.133E-13 0.151E+04   0.813E-13 -.275E-13 -.151E+04   0.186E-23 -.372E-23 0.357E+01
   0.750E-13 -.632E-12 0.151E+04   0.192E-13 -.151E-13 -.151E+04   0.905E-23 0.827E-24 0.357E+01
   -.564E-13 0.811E-12 -.151E+04   0.159E-11 0.622E-13 0.152E+04   -.132E-22 0.182E-22 -.487E+01
   0.637E-13 -.166E-12 -.151E+04   -.165E-11 0.799E-14 0.152E+04   0.993E-23 -.496E-23 -.487E+01
   -.573E-13 -.549E-13 -.497E+03   0.898E-11 -.142E-13 0.497E+03   -.265E-22 0.298E-22 0.259E+00
   0.132E-12 -.239E-12 -.497E+03   -.891E-11 -.718E-14 0.497E+03   -.318E-21 0.265E-21 0.259E+00
   0.313E-12 0.811E-12 0.498E+03   0.106E-10 -.624E-13 -.498E+03   0.355E-23 -.331E-23 -.759E-01
   0.480E-12 -.153E-12 0.498E+03   -.105E-10 -.853E-13 -.498E+03   -.414E-24 -.248E-23 -.759E-01
   0.375E-12 -.525E-12 0.151E+04   0.751E-13 -.302E-13 -.151E+04   -.372E-23 -.414E-23 0.357E+01
   0.494E-12 -.152E-11 0.151E+04   -.129E-13 -.104E-13 -.151E+04   -.558E-23 0.248E-23 0.357E+01
   0.370E-12 0.944E-12 -.151E+04   -.825E-12 0.807E-12 0.152E+04   0.662E-23 0.331E-23 -.487E+01
   0.467E-12 0.519E-12 -.151E+04   0.720E-12 -.789E-12 0.152E+04   0.827E-23 0.146E-22 -.487E+01
   0.304E-12 -.296E-12 -.497E+03   -.760E-12 -.814E-11 0.497E+03   0.265E-22 0.000E+00 0.259E+00
   0.484E-12 0.276E-11 -.497E+03   0.760E-12 0.814E-11 0.497E+03   -.112E-21 -.238E-21 0.259E+00
   0.287E-12 -.836E-12 0.498E+03   0.901E-11 0.897E-11 -.498E+03   -.269E-23 -.165E-23 -.759E-01
   0.460E-12 -.146E-11 0.498E+03   -.895E-11 -.902E-11 -.498E+03   0.331E-23 0.827E-24 -.759E-01
   0.378E-12 -.106E-12 0.151E+04   0.195E-13 -.409E-13 -.151E+04   -.744E-23 0.207E-23 0.357E+01
   0.494E-12 -.113E-12 0.151E+04   0.443E-13 -.245E-13 -.151E+04   -.703E-23 0.662E-23 0.357E+01
   0.344E-12 0.698E-12 -.151E+04   -.426E-13 0.640E-13 0.152E+04   -.993E-23 0.199E-22 -.487E+01
   0.475E-12 0.193E-12 -.151E+04   -.820E-13 0.355E-14 0.152E+04   -.496E-23 0.261E-22 -.487E+01
   0.316E-12 0.649E-13 -.497E+03   0.142E-13 -.142E-13 0.497E+03   -.192E-21 -.132E-22 0.259E+00
   0.486E-12 0.241E-11 -.497E+03   -.143E-13 -.214E-13 0.497E+03   -.119E-21 -.265E-22 0.259E+00
   0.262E-10 0.202E-10 0.138E+02   0.139E-12 0.161E-12 -.887E-11   -.124E-20 -.185E-21 -.138E+02

 POSITION                                       TOTAL-FORCE (eV/Angst)
      0.00000      6.40959      7.50000         0.000000     -0.000000      0.315475
      2.13653      0.00000      7.50000         0.000000     -0.000000      0.315475
      0.00000      0.00000      9.63653        -0.000000     -0.000000      0.027363
      2.13653      6.40959      9.63653        -0.000000      0.000000      0.027363
      0.00000      6.40959     11.78433         0.000000     -0.000000      0.003315
      2.13653      0.00000     11.78433         0.000000     -0.000000      0.003315
     -0.00000     -0.00000     13.90934         0.000000     -0.000000     -0.001784
      2.13653      6.40959     13.90934         0.000000      0.000000     -0.001784
      0.00000      2.13653      7.50000         0.000000      0.000000      0.315475
      2.13653      4.27306      7.50000         0.000000      0.000000      0.315475
      0.00000      4.27306      9.63653        -0.000000      0.000000      0.027363
      2.13653      2.13653      9.63653        -0.000000     -0.000000      0.027363
      0.00000      2.13653     11.78433         0.000000     -0.000000      0.003315
      2.13653      4.27306     11.78433         0.000000      0.000000      0.003315
      0.00000      4.27306     13.90934        -0.000000     -0.000000     -0.001784
      2.13653      2.13653     13.90934         0.000000     -0.000000     -0.001784
      4.27306      6.40959      7.50000         0.000000      0.000000      0.315475
      6.40959      0.00000      7.50000        -0.000000      0.000000      0.315475
      4.27306      0.00000      9.63653        -0.000000     -0.000000      0.027363
      6.40959      6.40959      9.63653         0.000000      0.000000      0.027363
      4.27306      6.40959     11.78433         0.000000      0.000000      0.003315
      6.40959      0.00000     11.78433         0.000000      0.000000      0.003315
      4.27306     -0.00000     13.90934         0.000000     -0.000000     -0.001784
      6.40959      6.40959     13.90934         0.000000     -0.000000     -0.001784
      4.27306      2.13653      7.50000        -0.000000      0.000000      0.315475
      6.40959      4.27306      7.50000         0.000000      0.000000      0.315475
      4.27306      4.27306      9.63653         0.000000      0.000000      0.027363
      6.40959      2.13653      9.63653        -0.000000     -0.000000      0.027363
      4.27306      2.13653     11.78433         0.000000     -0.000000      0.003315
      6.40959      4.27306     11.78433        -0.000000     -0.000000      0.003315
      4.27306      4.27306     13.90934         0.000000     -0.000000     -0.001784
      6.40959      2.13653     13.90934         0.000000      0.000000     -0.001784
      0.00000      6.40959      9.63653        -0.000000     -0.000000      0.053321
      2.13653      0.00000      9.63653         0.000000     -0.000000      0.053321
      0.00000      0.00000      7.50000         0.000000     -0.000000     -0.397884
      2.13653      6.40959      7.50000        -0.000000     -0.000000     -0.397884
     -0.00000      6.40959     13.94813         0.000000      0.000000      0.003137
      2.13653      0.00000     13.94813        -0.000000     -0.000000      0.003137
     -0.00000     -0.00000     11.77868        -0.000000      0.000000     -0.002944
      2.13653      6.40959     11.77868        -0.000000     -0.000000     -0.002944
      0.00000      2.13653      9.63653        -0.000000      0.000000      0.053321
      2.13653      4.27306      9.63653         0.000000     -0.000000      0.053321
      0.00000      4.27306      7.50000        -0.000000     -0.000000     -0.397884
      2.13653      2.13653      7.50000         0.000000      0.000000     -0.397884
      0.00000      2.13653     13.94813         0.000000     -0.000000      0.003137
      2.13653      4.27306     13.94813         0.000000      0.000000      0.003137
     -0.00000      4.27306     11.77868        -0.000000      0.000000     -0.002944
      2.13653      2.13653     11.77868        -0.000000     -0.000000     -0.002944
      4.27306      6.40959      9.63653         0.000000     -0.000000      0.053321
      6.40959      0.00000      9.63653        -0.000000      0.000000      0.053321
      4.27306      0.00000      7.50000         0.000000      0.000000     -0.397884
      6.40959      6.40959      7.50000         0.000000      0.000000     -0.397884
      4.27306      6.40959     13.94813         0.000000      0.000000      0.003137
      6.40959     -0.00000     13.94813         0.000000     -0.000000      0.003137
      4.27306      0.00000     11.77868         0.000000     -0.000000     -0.002944
      6.40959      6.40959     11.77868         0.000000     -0.000000     -0.002944
      4.27306      2.13653      9.63653         0.000000      0.000000      0.053321
      6.40959      4.27306      9.63653        -0.000000     -0.000000      0.053321
      4.27306      4.27306      7.50000        -0.000000      0.000000     -0.397884
      6.40959      2.13653      7.50000        -0.000000      0.000000     -0.397884
      4.27306      2.13653     13.94813         0.000000     -0.000000      0.003137
      6.40959      4.27306     13.94813         0.000000      0.000000      0.003137
      4.27306      4.27306     11.77868        -0.000000      0.000000     -0.002944
      6.40959      2.13653     11.77868        -0.000000      0.000000     -0.002944
    total drift:                                0.000000      0.000000     -0.007610

  FREE ENERGIE OF THE ION-ELECTRON SYSTEM (eV)
  free  energy   TOTEN  =      -227.14328792 eV

  energy  without entropy=     -227.14328792  energy(sigma->0) =     -227.14328792

 d Force = 0.3020458E-04[ 0.975E-06, 0.594E-04]  d Energy = 0.2685006E-04 0.335E-05
 d Force =-0.9289722E+01[-0.929E+01,-0.929E+01]  d Ewald  =-0.9289722E+01 0.485E-08

 reached required accuracy - stopping structural energy minimisation