 vasp.6.3.0 20Jan22 (build Apr  1 2022 16:44:48) complex
 executed on        HPECrayEX_GCC date 2022.09.26  16:39:48

 INCAR:
   SYSTEM = MgO-rocksalt
   ISMEAR = 0
   SIGMA = 0.05
   EDIFF = 1E-6
   ALGO = ALL
   ISTART = 0
   IBRION = 2
   NSW = 1000
   ISYM = 2
   ISIF = 2
   EDIFFG = -0.01
   DIPOL = 0.5 0.5 0.5
   IDIPOL = 3
   LDIPOL = .TRUE.
   LHFCALC = .TRUE.
   GGA = B5
   AEXX = 0.2
   AGGAX = 0.72
   AGGAC = 0.81
   ALDAC = 0.19
   IVDW = 1
   VDW_S6 = 1.05
   VDW_C6 = 0.63 0.70
   VDW_R0 = 1.243 1.342
   ENCUT = 600
   PREC = Accurate
   LASPH = .TRUE.
   LREAL = .FALSE.
   ISPIN = 1
   NELM = 200
   NELMIN = 8
   NCORE = 8
   KPAR = 1
   LWAVE = .FALSE.
   LCHARG = .FALSE.

 POTCAR:    PAW_PBE Mg_pv 13Apr2007
 POTCAR:    PAW_PBE O 08Apr2002
|           W    W    AA    RRRRR   N    N  II  N    N   GGGG   !!!           |
|           W    W   A  A   R    R  NN   N  II  NN   N  G    G  !!!           |
|           W    W  A    A  R    R  N N  N  II  N N  N  G       !!!           |
|           W WW W  AAAAAA  RRRRR   N  N N  II  N  N N  G  GGG   !            |
|           WW  WW  A    A  R   R   N   NN  II  N   NN  G    G                |
|           W    W  A    A  R    R  N    N  II  N    N   GGGG   !!!           |
|     You have selected ISYM=2 for a HF type calculation. This will           |
|     symmetrize the charge density but not the exchange potential. I         |
|     suggest to use ISYM=3 instead. This uses symmetry to obtain the         |
|     orbitals at all k-points in the Brillouin zone, but does not apply      |
|     symmetry to the Hartree potential directly. The resultant charge        |
|     might have lower symmetry than the crystal but, at least, Hartree       |
|     and exchange are fully compatible.                                      |

   TITEL  = PAW_PBE Mg_pv 13Apr2007
   POMASS =   24.305; ZVAL   =    8.000    mass and valenz
   ENMAX  =  403.929; ENMIN  =  302.947 eV

   TITEL  = PAW_PBE O 08Apr2002
   POMASS =   16.000; ZVAL   =    6.000    mass and valenz
   ENMAX  =  400.000; ENMIN  =  300.000 eV

  PAW_PBE Mg_pv 13Apr2007               :
  PAW_PBE O 08Apr2002                   :

 POSCAR: Mg  O
  positions in direct lattice
  velocities in cartesian coordinates
 exchange correlation table for  LEXCH =       12
   RHO(1)=    0.500       N(1)  =     2000
   RHO(2)=  100.500       N(2)  =     4000

 ion  position               nearest neighbor table
   1  0.250  0.000  0.352-  35 2.10  36 2.10  43 2.10  52 2.10  33 2.10
   2  0.500  0.250  0.352-  35 2.10  36 2.10  44 2.10  51 2.10  34 2.10
   3  0.250  0.250  0.451-  39 2.10  34 2.10  33 2.10  41 2.10  50 2.10  35 2.10
   4  0.500  0.000  0.451-  40 2.10  34 2.10  33 2.10  42 2.10  49 2.10  36 2.10
   5  0.250  0.000  0.549-  39 2.10  40 2.10  47 2.10  56 2.10  33 2.10  37 2.12
   6  0.500  0.250  0.549-  39 2.10  40 2.10  48 2.10  55 2.10  34 2.10  38 2.12
   7  0.250  0.250  0.647-  39 2.09  38 2.10  37 2.10  45 2.10  54 2.10
   8  0.500  0.000  0.647-  40 2.09  38 2.10  37 2.10  46 2.10  53 2.10
   9  0.250  0.500  0.352-  35 2.10  43 2.10  44 2.10  60 2.10  41 2.10
  10  0.500  0.750  0.352-  36 2.10  43 2.10  44 2.10  59 2.10  42 2.10
  11  0.250  0.750  0.451-  47 2.10  41 2.10  42 2.10  33 2.10  58 2.10  43 2.10
  12  0.500  0.500  0.451-  48 2.10  41 2.10  42 2.10  34 2.10  57 2.10  44 2.10
  13  0.250  0.500  0.549-  39 2.10  47 2.10  48 2.10  64 2.10  41 2.10  45 2.12
  14  0.500  0.750  0.549-  40 2.10  47 2.10  48 2.10  63 2.10  42 2.10  46 2.12
  15  0.250  0.750  0.647-  47 2.09  45 2.10  46 2.10  37 2.10  62 2.10
  16  0.500  0.500  0.647-  48 2.09  45 2.10  46 2.10  38 2.10  61 2.10
  17  0.750  0.000  0.352-  36 2.10  51 2.10  52 2.10  59 2.10  49 2.10
  18  0.000  0.250  0.352-  35 2.10  51 2.10  52 2.10  60 2.10  50 2.10
  19  0.750  0.250  0.451-  55 2.10  49 2.10  50 2.10  34 2.10  57 2.10  51 2.10
  20  0.000  0.000  0.451-  56 2.10  49 2.10  50 2.10  33 2.10  58 2.10  52 2.10
  21  0.750  0.000  0.549-  40 2.10  55 2.10  56 2.10  63 2.10  49 2.10  53 2.12
  22  0.000  0.250  0.549-  39 2.10  55 2.10  56 2.10  64 2.10  50 2.10  54 2.12
  23  0.750  0.250  0.647-  55 2.09  53 2.10  54 2.10  38 2.10  61 2.10
  24  0.000  0.000  0.647-  56 2.09  53 2.10  54 2.10  37 2.10  62 2.10
  25  0.750  0.500  0.352-  44 2.10  51 2.10  59 2.10  60 2.10  57 2.10
  26  0.000  0.750  0.352-  43 2.10  52 2.10  59 2.10  60 2.10  58 2.10
  27  0.750  0.750  0.451-  63 2.10  49 2.10  57 2.10  58 2.10  42 2.10  59 2.10
  28  0.000  0.500  0.451-  64 2.10  50 2.10  57 2.10  58 2.10  41 2.10  60 2.10
  29  0.750  0.500  0.549-  48 2.10  55 2.10  63 2.10  64 2.10  57 2.10  61 2.12
  30  0.000  0.750  0.549-  47 2.10  56 2.10  63 2.10  64 2.10  58 2.10  62 2.12
  31  0.750  0.750  0.647-  63 2.09  53 2.10  61 2.10  62 2.10  46 2.10
  32  0.000  0.500  0.647-  64 2.09  54 2.10  61 2.10  62 2.10  45 2.10
  33  0.250  0.000  0.451-   3 2.10   4 2.10  11 2.10  20 2.10   1 2.10   5 2.10
  34  0.500  0.250  0.451-   3 2.10   4 2.10  12 2.10  19 2.10   2 2.10   6 2.10
  35  0.250  0.250  0.352-   1 2.10   2 2.10   9 2.10  18 2.10   3 2.10
  36  0.500  0.000  0.352-   1 2.10   2 2.10  10 2.10  17 2.10   4 2.10
  37  0.250  0.000  0.649-   7 2.10   8 2.10  15 2.10  24 2.10   5 2.12
  38  0.500  0.250  0.649-   7 2.10   8 2.10  16 2.10  23 2.10   6 2.12
  39  0.250  0.250  0.549-   7 2.09   3 2.10   6 2.10   5 2.10  13 2.10  22 2.10
  40  0.500  0.000  0.549-   8 2.09   4 2.10   6 2.10   5 2.10  14 2.10  21 2.10
  41  0.250  0.500  0.451-   3 2.10  11 2.10  12 2.10  28 2.10   9 2.10  13 2.10
  42  0.500  0.750  0.451-   4 2.10  11 2.10  12 2.10  27 2.10  10 2.10  14 2.10
  43  0.250  0.750  0.352-   1 2.10   9 2.10  10 2.10  26 2.10  11 2.10
  44  0.500  0.500  0.352-   2 2.10   9 2.10  10 2.10  25 2.10  12 2.10
  45  0.250  0.500  0.649-   7 2.10  15 2.10  16 2.10  32 2.10  13 2.12
  46  0.500  0.750  0.649-   8 2.10  15 2.10  16 2.10  31 2.10  14 2.12
  47  0.250  0.750  0.549-  15 2.09  11 2.10  13 2.10  14 2.10   5 2.10  30 2.10
  48  0.500  0.500  0.549-  16 2.09  12 2.10  13 2.10  14 2.10   6 2.10  29 2.10
  49  0.750  0.000  0.451-   4 2.10  19 2.10  20 2.10  27 2.10  17 2.10  21 2.10
  50  0.000  0.250  0.451-   3 2.10  19 2.10  20 2.10  28 2.10  18 2.10  22 2.10
  51  0.750  0.250  0.352-   2 2.10  17 2.10  18 2.10  25 2.10  19 2.10
  52  0.000  0.000  0.352-   1 2.10  17 2.10  18 2.10  26 2.10  20 2.10
  53  0.750  0.000  0.649-   8 2.10  23 2.10  24 2.10  31 2.10  21 2.12
  54  0.000  0.250  0.649-   7 2.10  23 2.10  24 2.10  32 2.10  22 2.12
  55  0.750  0.250  0.549-  23 2.09  19 2.10  21 2.10  22 2.10   6 2.10  29 2.10
  56  0.000  0.000  0.549-  24 2.09  20 2.10  21 2.10  22 2.10   5 2.10  30 2.10
  57  0.750  0.500  0.451-  12 2.10  19 2.10  27 2.10  28 2.10  25 2.10  29 2.10
  58  0.000  0.750  0.451-  11 2.10  20 2.10  27 2.10  28 2.10  26 2.10  30 2.10
  59  0.750  0.750  0.352-  10 2.10  17 2.10  25 2.10  26 2.10  27 2.10
  60  0.000  0.500  0.352-   9 2.10  18 2.10  25 2.10  26 2.10  28 2.10
  61  0.750  0.500  0.649-  16 2.10  23 2.10  31 2.10  32 2.10  29 2.12
  62  0.000  0.750  0.649-  15 2.10  24 2.10  31 2.10  32 2.10  30 2.12
  63  0.750  0.750  0.549-  31 2.09  27 2.10  14 2.10  29 2.10  30 2.10  21 2.10
  64  0.000  0.500  0.549-  32 2.09  28 2.10  13 2.10  29 2.10  30 2.10  22 2.10

  LATTYP: Found a simple tetragonal cell.
 ALAT       =     8.4048619950
 C/A-ratio  =     2.5346812963

  Lattice vectors:

 A1 = (   8.4048619950,   0.0000000000,   0.0000000000)
 A2 = (   0.0000000000,   8.4048619950,   0.0000000000)
 A3 = (   0.0000000000,   0.0000000000,  21.3036464962)

Analysis of symmetry for initial positions (statically):
 Subroutine PRICEL returns following result:

[...]

   8 primitive cells build up your supercell.

 Routine SETGRP: Setting up the symmetry group for a
 simple tetragonal supercell.

 Subroutine GETGRP returns: Found  8 space group operations
 (whereof  8 operations were pure point group operations)
 out of a pool of 16 trial point group operations.

The static configuration has the point symmetry C_4v.

Analysis of symmetry for dynamics (positions and initial velocities):
 Subroutine PRICEL returns following result:

[...]

The dynamic configuration has the point symmetry C_4v.

Analysis of constrained symmetry for selective dynamics:
 Subroutine PRICEL returns following result:

  LATTYP: Found a simple tetragonal cell.
 ALAT       =     2.9715674558
 C/A-ratio  =     7.1691613309

  Lattice vectors:

 A1 = (   2.1012154987,  -2.1012154987,   0.0000000000)
 A2 = (   2.1012154987,   2.1012154987,   0.0000000000)
 A3 = (   0.0000000000,   0.0000000000,  21.3036464962)

   8 primitive cells build up your supercell.

 Routine SETGRP: Setting up the symmetry group for a
 simple tetragonal supercell.

 Subroutine GETGRP returns: Found  8 space group operations
 (whereof  8 operations were pure point group operations)
 out of a pool of 16 trial point group operations.

The constrained configuration has the point symmetry C_4v.

 Subroutine INISYM returns: Found  8 space group operations
 (whereof  8 operations are pure point group operations),
 and found     8 'primitive' translations

                                     Primitive cell

  volume of cell :     188.1157

  direct lattice vectors                    reciprocal lattice vectors
     2.101215499 -2.101215499  0.000000000     0.237957506 -0.237957506  0.000000000
     2.101215499  2.101215499  0.000000000     0.237957506  0.237957506 -0.000000000
     0.000000000  0.000000000 21.303646496    -0.000000000  0.000000000  0.046940321

  length of vectors
     2.971567456  2.971567456 21.303646496     0.336522732  0.336522732  0.046940321

  position of ions in fractional coordinates (direct lattice)
     0.500000000  0.500000000  0.352052406
     0.000000000  1.000000000  0.450684135
     0.500000000  0.500000000  0.549481360
     0.000000000  1.000000000  0.647101756
     0.500000000  0.500000000  0.450684135
     0.000000000  1.000000000  0.352052406
     0.500000000  0.500000000  0.649149576
     0.000000000  1.000000000  0.549102701

  ion indices of the primitive-cell ions
   primitive index   ion index
                 1           1
                 2           3
                 3           5
                 4           7
                 5          33
                 6          35
                 7          37
                 8          39

 KPOINTS: pymatgen v2020.8.13 with grid density =

Automatic generation of k-mesh.
 Grid dimensions read from file:
 generate k-points for:    2    2    1

 Generating k-lattice:

  Cartesian coordinates                     Fractional coordinates (reciprocal lattice)
     0.059489377  0.000000000  0.000000000     0.500000000  0.000000000  0.000000000
     0.000000000  0.059489377  0.000000000     0.000000000  0.500000000  0.000000000
     0.000000000  0.000000000  0.046940321     0.000000000  0.000000000  1.000000000

  Length of vectors
     0.059489377  0.059489377  0.046940321

  Shift w.r.t. Gamma in fractional coordinates (k-lattice)
     0.000000000  0.000000000  0.000000000

 Subroutine IBZKPT returns following result:

[...]
      7     -44.9203      2.00000
      8     -44.9203      2.00000
      9     -44.8453      2.00000
     10     -44.8453      2.00000
     11     -44.8453      2.00000
     12     -44.8453      2.00000
     13     -44.8277      2.00000
     14     -44.8277      2.00000
     15     -44.8277      2.00000
     16     -44.8277      2.00000
     17     -44.8200      2.00000
     18     -44.8200      2.00000
     19     -44.8200      2.00000
     20     -44.8200      2.00000
     21     -44.8022      2.00000
     22     -44.8022      2.00000
     23     -44.8022      2.00000
     24     -44.8022      2.00000
     25     -44.7210      2.00000
     26     -44.7210      2.00000
     27     -44.7210      2.00000
     28     -44.7210      2.00000
     29     -44.7170      2.00000
     30     -44.7170      2.00000
     31     -44.7170      2.00000
     32     -44.7170      2.00000
     33     -44.6429      2.00000
     34     -44.6429      2.00000
     35     -44.6429      2.00000
     36     -44.6429      2.00000
     37     -44.6252      2.00000
     38     -44.6252      2.00000
     39     -44.6252      2.00000
     40     -44.6252      2.00000
     41     -44.6173      2.00000
     42     -44.6173      2.00000
     43     -44.6173      2.00000
     44     -44.6173      2.00000
     45     -44.5995      2.00000
     46     -44.5995      2.00000
     47     -44.5995      2.00000
     48     -44.5995      2.00000
     49     -44.3560      2.00000
     50     -44.3560      2.00000
     51     -44.3560      2.00000
     52     -44.3560      2.00000
     53     -44.3394      2.00000
     54     -44.3394      2.00000
     55     -44.3394      2.00000
     56     -44.3394      2.00000
     57     -44.3345      2.00000
     58     -44.3345      2.00000
     59     -44.3345      2.00000
     60     -44.3345      2.00000
[...]
    498      18.4133      0.00000
    499      18.4133      0.00000
    500      18.4134      0.00000
    501      18.4454      0.00000
    502      18.4712      0.00000
    503      18.4952      0.00000
    504      18.5098      0.00000
    505      18.6034      0.00000
    506      18.6706      0.00000
    507      18.9017      0.00000
    508      18.9930      0.00000
    509      19.3505      0.00000
    510      19.4266      0.00000
    511      19.4891      0.00000
    512      19.5920      0.00000

 soft charge-density along one line, spin component           1
         0         1         2         3         4         5         6         7         8         9
 total charge-density along one line

------------------------ aborting loop because EDIFF is reached ----------------------------------------

  Number of pair interactions contributing to vdW energy:  731232
  Edisp (eV):   -5.17057

  FORCE on cell =-STRESS in cart. coord.  units (eV):
  Direction    XX          YY          ZZ          XY          YZ          ZX
  Alpha Z   883.92154   883.92154   883.92154
  Ewald  163392.41628163392.41628************     0.00000     0.00000     0.00000
  Hartree173483.09039173483.09039************    -0.00000    -0.00000    -0.00000
  E(xc)   -2001.91499 -2001.91499 -2005.23759    -0.00000    -0.00000    -0.00000
  Local  ************************347236.73915    -0.00000     0.00000    -0.00000
  n-local -1169.08634 -1169.52935 -1191.83488     0.00001     0.00000     0.00000
  augment   896.78762   896.78762   886.49008     0.00000    -0.00000    -0.00000
  Kinetic  7339.40972  7341.24462  7377.63752    -0.00000    -0.00000    -0.00000
  Fock    -1997.19817 -1997.30642 -1993.98208    -0.00000     0.00000     0.00000
  vdW        -7.55859    -7.55859    -6.14482     0.00000     0.00000    -0.00000
  Total     -30.87473   -30.87473    -2.42792     0.00000     0.00000     0.00000
  in kB     -32.86992   -32.86992    -2.58482     0.00000     0.00000     0.00000

 VOLUME and BASIS-vectors are now :
  energy-cutoff  :      600.00
  volume of cell :     1504.93
      direct lattice vectors                 reciprocal lattice vectors
     8.404861995  0.000000000  0.000000000     0.118978753  0.000000000  0.000000000
     0.000000000  8.404861995  0.000000000     0.000000000  0.118978753  0.000000000
     0.000000000  0.000000000 21.303646496     0.000000000  0.000000000  0.046940321

  length of vectors
     8.404861995  8.404861995 21.303646496     0.118978753  0.118978753  0.046940321

 FORCES acting on ions:
    Electron-Ion                     Ewald-Force                    Non-Local-Force
   0.190E-12 0.287E-13 0.209E+04   0.118E-12 0.353E-13 -.208E+04   0.209E-23 -.165E-23 -.641E+01
   0.686E-12 -.109E-11 0.209E+04   0.767E-13 0.204E-13 -.208E+04   0.165E-23 0.827E-24 -.641E+01
   0.285E-12 0.392E-12 0.692E+03   0.135E-12 0.604E-13 -.693E+03   0.116E-22 0.662E-23 0.410E+00
   0.576E-12 -.812E-13 0.692E+03   0.101E-12 0.252E-13 -.693E+03   0.153E-22 -.331E-23 0.410E+00
   0.246E-12 -.169E-12 -.697E+03   0.178E-12 0.261E-13 0.697E+03   -.132E-22 0.000E+00 -.244E+00
   0.553E-12 0.358E-12 -.697E+03   0.117E-12 0.426E-13 0.697E+03   -.215E-22 -.185E-21 -.244E+00
   0.132E-12 0.916E-12 -.208E+04   -.355E-14 0.213E-13 0.207E+04   0.132E-22 -.265E-22 0.550E+01
   0.648E-12 0.101E-12 -.208E+04   -.100E-12 0.256E-13 0.207E+04   -.199E-22 0.265E-22 0.550E+01
   0.182E-12 0.637E-12 0.209E+04   0.631E-13 -.329E-13 -.208E+04   -.538E-23 -.165E-23 -.641E+01
   0.692E-12 0.165E-11 0.209E+04   0.108E-12 0.711E-14 -.208E+04   -.393E-23 -.248E-23 -.641E+01
   0.276E-12 0.331E-12 0.692E+03   0.114E-12 -.107E-13 -.693E+03   -.476E-23 0.000E+00 0.410E+00
   0.575E-12 0.605E-12 0.692E+03   0.173E-12 0.498E-13 -.693E+03   0.273E-22 -.141E-22 0.410E+00
   0.237E-12 0.223E-12 -.697E+03   0.568E-13 0.281E-13 0.697E+03   -.185E-21 0.169E-22 -.244E+00
   0.561E-12 0.744E-12 -.697E+03   0.139E-12 -.338E-13 0.697E+03   0.662E-23 -.101E-21 -.244E+00
   0.126E-12 0.137E-11 -.208E+04   -.675E-13 0.497E-13 0.207E+04   0.695E-22 0.827E-23 0.550E+01
   0.648E-12 -.118E-11 -.208E+04   -.421E-13 0.425E-13 0.207E+04   -.550E-22 0.794E-22 0.550E+01
   0.941E-12 0.676E-14 0.209E+04   -.888E-15 0.347E-13 -.208E+04   -.496E-23 -.807E-23 -.641E+01
   -.222E-13 0.211E-12 0.209E+04   0.141E-12 0.187E-13 -.208E+04   -.165E-23 -.579E-23 -.641E+01
   0.872E-12 -.377E-11 0.692E+03   0.959E-13 0.568E-13 -.693E+03   0.434E-23 -.662E-23 0.410E+00
   -.134E-13 -.913E-13 0.692E+03   0.320E-13 -.110E-13 -.693E+03   -.265E-22 0.165E-22 0.410E+00
   0.848E-12 -.200E-12 -.697E+03   0.799E-13 0.281E-13 0.697E+03   -.265E-22 -.662E-22 -.244E+00
   -.533E-13 0.338E-13 -.697E+03   0.185E-12 0.568E-13 0.697E+03   0.529E-22 -.926E-22 -.244E+00
   0.892E-12 -.359E-11 -.208E+04   -.391E-13 0.391E-13 0.207E+04   -.331E-22 -.106E-21 0.550E+01
   -.532E-13 0.947E-13 -.208E+04   -.359E-14 0.502E-13 0.207E+04   -.397E-22 -.397E-22 0.550E+01
   0.962E-12 0.262E-11 0.209E+04   0.755E-13 -.981E-14 -.208E+04   -.827E-23 -.600E-23 -.641E+01
   -.156E-13 0.991E-12 0.209E+04   0.639E-13 -.195E-13 -.208E+04   -.538E-23 0.207E-23 -.641E+01
   0.880E-12 -.798E-12 0.692E+03   0.103E-12 0.711E-14 -.693E+03   0.910E-23 -.149E-22 0.410E+00
   -.765E-14 0.372E-12 0.692E+03   0.564E-13 0.246E-13 -.693E+03   0.269E-23 -.199E-22 0.410E+00
   0.847E-12 -.169E-11 -.697E+03   0.171E-12 0.282E-13 0.697E+03   -.172E-21 0.132E-22 -.244E+00
   -.560E-13 0.883E-12 -.697E+03   0.142E-12 0.284E-13 0.697E+03   0.662E-22 0.132E-21 -.244E+00
   0.902E-12 -.255E-11 -.208E+04   0.142E-13 0.178E-13 0.207E+04   -.860E-22 0.331E-22 0.550E+01
   -.591E-13 0.578E-12 -.208E+04   -.724E-14 0.107E-13 0.207E+04   -.135E-22 -.529E-22 0.550E+01
   0.157E-12 -.276E-12 0.519E+03   -.132E-12 -.566E-13 -.519E+03   -.910E-23 -.476E-23 -.905E-01
   0.260E-12 -.394E-12 0.519E+03   -.568E-13 -.293E-13 -.519E+03   -.165E-23 -.110E-22 -.905E-01
   0.577E-13 0.238E-12 0.157E+04   -.101E-12 -.613E-13 -.157E+04   0.496E-23 0.662E-23 0.312E+01
   0.324E-12 0.558E-13 0.157E+04   -.627E-13 -.311E-13 -.157E+04   0.000E+00 0.165E-23 0.312E+01
   0.882E-13 -.372E-13 -.158E+04   -.710E-12 -.893E-12 0.158E+04   -.496E-23 0.331E-22 -.455E+01
   0.348E-12 -.367E-11 -.158E+04   0.942E-12 0.757E-12 0.158E+04   0.265E-22 0.331E-22 -.455E+01
   0.140E-12 0.930E-12 -.517E+03   -.171E-12 -.853E-13 0.517E+03   0.000E+00 -.827E-24 0.269E+00
   0.265E-12 0.676E-14 -.517E+03   -.212E-12 -.851E-13 0.517E+03   0.000E+00 0.000E+00 0.269E+00
   0.149E-12 0.981E-13 0.519E+03   0.689E-12 -.853E-12 -.519E+03   -.579E-23 0.993E-23 -.905E-01
   0.263E-12 0.257E-12 0.519E+03   -.931E-12 0.816E-12 -.519E+03   -.910E-23 -.496E-23 -.905E-01
   0.401E-13 0.577E-12 0.157E+04   -.813E-13 -.311E-13 -.157E+04   0.116E-22 -.227E-23 0.312E+01
   0.313E-12 0.247E-12 0.157E+04   -.100E-12 0.164E-13 -.157E+04   0.331E-23 0.331E-23 0.312E+01
   0.867E-13 0.526E-12 -.158E+04   -.153E-11 -.319E-13 0.158E+04   0.000E+00 0.116E-22 -.455E+01
   0.354E-12 0.519E-11 -.158E+04   0.180E-11 -.338E-13 0.158E+04   0.000E+00 -.265E-22 -.455E+01
   0.125E-12 -.453E-12 -.517E+03   -.227E-12 -.121E-12 0.517E+03   0.331E-23 0.827E-24 0.269E+00
   0.268E-12 -.142E-11 -.517E+03   -.172E-12 -.285E-13 0.517E+03   -.331E-23 -.331E-23 0.269E+00
   0.414E-12 -.309E-12 0.519E+03   -.172E-11 -.343E-13 -.519E+03   -.827E-23 0.331E-23 -.905E-01
   -.110E-13 -.406E-12 0.519E+03   0.158E-11 0.142E-13 -.519E+03   -.141E-22 0.662E-23 -.905E-01
   0.442E-12 0.550E-12 0.157E+04   -.635E-13 -.622E-14 -.157E+04   0.000E+00 0.827E-24 0.312E+01
   -.200E-13 0.812E-13 0.157E+04   -.794E-13 0.201E-13 -.157E+04   0.165E-23 0.278E-23 0.312E+01
   0.428E-12 0.338E-14 -.158E+04   0.947E-12 -.838E-12 0.158E+04   0.000E+00 0.149E-22 -.455E+01
   -.321E-13 0.879E-13 -.158E+04   -.681E-12 0.810E-12 0.158E+04   0.331E-23 0.827E-23 -.455E+01
   0.435E-12 0.473E-11 -.517E+03   -.263E-12 -.426E-13 0.517E+03   0.414E-24 -.827E-24 0.269E+00
   -.149E-13 -.676E-14 -.517E+03   -.249E-12 -.346E-13 0.517E+03   -.496E-23 -.331E-23 0.269E+00
   0.418E-12 0.655E-11 0.519E+03   -.917E-12 -.803E-12 -.519E+03   0.620E-23 -.496E-23 -.905E-01
   -.145E-13 0.440E-13 0.519E+03   0.739E-12 0.874E-12 -.519E+03   -.149E-22 -.331E-23 -.905E-01
   0.446E-12 -.129E-11 0.157E+04   -.981E-13 0.195E-13 -.157E+04   -.414E-23 0.310E-24 0.312E+01
   -.780E-14 0.277E-12 0.157E+04   -.528E-13 0.586E-13 -.157E+04   -.414E-23 -.486E-23 0.312E+01
   0.424E-12 -.484E-12 -.158E+04   0.192E-12 0.214E-13 0.158E+04   0.269E-22 0.000E+00 -.455E+01
   -.385E-13 0.654E-12 -.158E+04   0.113E-12 0.711E-14 0.158E+04   0.331E-23 -.165E-22 -.455E+01
   0.451E-12 -.237E-13 -.517E+03   -.206E-12 -.711E-13 0.517E+03   -.496E-23 -.331E-23 0.269E+00
   -.113E-13 0.521E-12 -.517E+03   -.156E-12 -.144E-13 0.517E+03   -.331E-23 0.393E-23 0.269E+00
   0.203E-10 0.108E-10 0.182E+02   0.302E-12 -.530E-13 -.728E-11   -.445E-21 -.368E-21 -.160E+02

 POSITION                                       TOTAL-FORCE (eV/Angst)
      2.10122      0.00000      7.50000        -0.000000     -0.000000      0.405782
      4.20243      2.10122      7.50000        -0.000000      0.000000      0.405782
      2.10122      2.10122      9.60122         0.000000     -0.000000      0.038813
      4.20243      0.00000      9.60122         0.000000      0.000000      0.038813
      2.10122     -0.00000     11.71391        -0.000000      0.000000      0.001709
      4.20243      2.10122     11.71391        -0.000000     -0.000000      0.001709
      2.10122      2.10122     13.80052         0.000000     -0.000000      0.000971
      4.20243      0.00000     13.80052         0.000000      0.000000      0.000971
      2.10122      4.20243      7.50000        -0.000000      0.000000      0.405782
      4.20243      6.30365      7.50000         0.000000     -0.000000      0.405782
      2.10122      6.30365      9.60122         0.000000      0.000000      0.038813
      4.20243      4.20243      9.60122         0.000000     -0.000000      0.038813
      2.10122      4.20243     11.71391        -0.000000      0.000000      0.001709
      4.20243      6.30365     11.71391        -0.000000      0.000000      0.001709
      2.10122      6.30365     13.80052         0.000000      0.000000      0.000971
      4.20243      4.20243     13.80052         0.000000     -0.000000      0.000971
      6.30365      0.00000      7.50000        -0.000000     -0.000000      0.405782
      0.00000      2.10122      7.50000         0.000000      0.000000      0.405782
      6.30365      2.10122      9.60122        -0.000000     -0.000000      0.038813
      0.00000      0.00000      9.60122         0.000000     -0.000000      0.038813
      6.30365      0.00000     11.71391        -0.000000     -0.000000      0.001709
      0.00000      2.10122     11.71391        -0.000000      0.000000      0.001709
      6.30365      2.10122     13.80052        -0.000000     -0.000000      0.000971
     -0.00000     -0.00000     13.80052         0.000000      0.000000      0.000971
      6.30365      4.20243      7.50000        -0.000000      0.000000      0.405782
      0.00000      6.30365      7.50000        -0.000000     -0.000000      0.405782
      6.30365      6.30365      9.60122        -0.000000      0.000000      0.038813
      0.00000      4.20243      9.60122         0.000000      0.000000      0.038813
      6.30365      4.20243     11.71391        -0.000000      0.000000      0.001709
     -0.00000      6.30365     11.71391        -0.000000      0.000000      0.001709
      6.30365      6.30365     13.80052         0.000000      0.000000      0.000971
     -0.00000      4.20243     13.80052         0.000000     -0.000000      0.000971
      2.10122      0.00000      9.60122         0.000000      0.000000      0.052017
      4.20243      2.10122      9.60122         0.000000      0.000000      0.052017
      2.10122      2.10122      7.50000        -0.000000     -0.000000     -0.494205
      4.20243      0.00000      7.50000        -0.000000     -0.000000     -0.494205
      2.10122     -0.00000     13.84367        -0.000000      0.000000      0.000880
      4.20243      2.10122     13.84367         0.000000     -0.000000      0.000880
      2.10122      2.10122     11.70824         0.000000     -0.000000     -0.005968
      4.20243     -0.00000     11.70824        -0.000000      0.000000     -0.005968
      2.10122      4.20243      9.60122        -0.000000      0.000000      0.052017
      4.20243      6.30365      9.60122         0.000000     -0.000000      0.052017
      2.10122      6.30365      7.50000        -0.000000      0.000000     -0.494205
      4.20243      4.20243      7.50000        -0.000000     -0.000000     -0.494205
      2.10122      4.20243     13.84367        -0.000000      0.000000      0.000880
      4.20243      6.30365     13.84367         0.000000      0.000000      0.000880
      2.10122      6.30365     11.70824         0.000000     -0.000000     -0.005968
      4.20243      4.20243     11.70824        -0.000000     -0.000000     -0.005968
      6.30365      0.00000      9.60122        -0.000000      0.000000      0.052017
      0.00000      2.10122      9.60122         0.000000     -0.000000      0.052017
      6.30365      2.10122      7.50000        -0.000000     -0.000000     -0.494205
      0.00000      0.00000      7.50000        -0.000000     -0.000000     -0.494205
      6.30365     -0.00000     13.84367         0.000000     -0.000000      0.000880
      0.00000      2.10122     13.84367        -0.000000     -0.000000      0.000880
      6.30365      2.10122     11.70824        -0.000000     -0.000000     -0.005968
      0.00000     -0.00000     11.70824         0.000000     -0.000000     -0.005968
      6.30365      4.20243      9.60122        -0.000000      0.000000      0.052017
      0.00000      6.30365      9.60122         0.000000     -0.000000      0.052017
      6.30365      6.30365      7.50000        -0.000000      0.000000     -0.494205
      0.00000      4.20243      7.50000        -0.000000     -0.000000     -0.494205
      6.30365      4.20243     13.84367        -0.000000     -0.000000      0.000880
     -0.00000      6.30365     13.84367        -0.000000      0.000000      0.000880
      6.30365      6.30365     11.70824        -0.000000     -0.000000     -0.005968
     -0.00000      4.20243     11.70824        -0.000000      0.000000     -0.005968
    total drift:                                0.000000      0.000000     -0.011050

  FREE ENERGIE OF THE ION-ELECTRON SYSTEM (eV)
  free  energy   TOTEN  =      -438.72314604 eV

  energy  without entropy=     -438.72314604  energy(sigma->0) =     -438.72314604

 d Force = 0.1622923E-03[-0.145E-04, 0.339E-03]  d Energy = 0.1461456E-03 0.161E-04
 d Force = 0.5908351E+02[ 0.591E+02, 0.591E+02]  d Ewald  = 0.5908351E+02 0.352E-06

 reached required accuracy - stopping structural energy minimisation