 vasp.6.3.0 20Jan22 (build Apr  1 2022 16:44:48) complex
 executed on        HPECrayEX_GCC date 2022.09.30  22:16:11

 INCAR:
   SYSTEM = MgO-rocksalt
   ISMEAR = 0
   SIGMA = 0.05
   EDIFF = 1E-5
   ALGO = ALL
   ISTART = 0
   IBRION = -1
   NSW = 0
   ISYM = 2
   ISIF = 2
   DIPOL = 0.5 0.5 0.5
   IDIPOL = 3
   LDIPOL = .TRUE.
   GGA = RE
   LUSE_VDW = .TRUE.
   AGGAC = 0.0
   ENCUT = 600
   PREC = Normal
   LASPH = .TRUE.
   LREAL = .FALSE.
   ISPIN = 1
   NELM = 200
   NELMIN = 8
   NCORE = 4
   KPAR = 2
   LWAVE = .FALSE.
   LCHARG = .FALSE.

 POTCAR:    PAW_PBE Mg_pv 13Apr2007
 POTCAR:    PAW_PBE O 08Apr2002
|               ----> ADVICE to this user running VASP <----                  |
|     You have switched on vdW-DFT.                                           |
|     This routine was written and supplied by Jiri Klimes. We recommend      |
|     that you carefully read and cite the following publications:            |
|       J. Klimes, D.R. Bowler, A. Michelides                                 |
|          J. Phys.: Cond Matt. 22 022201 (2010)                              |
|       J. Klimes, D.R. Bowler, A. Michelides                                 |
|          Phys. Rev. B. 83, 195131 (2011)                                    |
|     and references therein.                                                 |

   TITEL  = PAW_PBE Mg_pv 13Apr2007
   POMASS =   24.305; ZVAL   =    8.000    mass and valenz
   ENMAX  =  403.929; ENMIN  =  302.947 eV

   TITEL  = PAW_PBE O 08Apr2002
   POMASS =   16.000; ZVAL   =    6.000    mass and valenz
   ENMAX  =  400.000; ENMIN  =  300.000 eV

  PAW_PBE Mg_pv 13Apr2007               :
  PAW_PBE O 08Apr2002                   :

 POSCAR: Mg  O
  positions in direct lattice
 exchange correlation table for  LEXCH =       40
   RHO(1)=    0.500       N(1)  =     2000
   RHO(2)=  100.500       N(2)  =     4000

 ion  position               nearest neighbor table
   1  0.000  0.750  0.352-  33 2.11  35 2.11  36 2.11  43 2.11  52 2.11
   2  0.250  0.000  0.352-  34 2.11  35 2.11  36 2.11  44 2.11  51 2.11
   3  0.000  0.000  0.451-  35 2.11  34 2.11  33 2.11  41 2.11  50 2.11  39 2.12
   4  0.250  0.750  0.451-  36 2.11  34 2.11  33 2.11  42 2.11  49 2.11  40 2.12
   5  0.000  0.750  0.550-  47 2.11  40 2.11  56 2.11  39 2.11  33 2.12  37 2.15
   6  0.250  0.000  0.550-  55 2.11  48 2.11  40 2.11  39 2.11  34 2.12  38 2.15
   7  0.000  0.000  0.649-  37 2.11  38 2.11  45 2.11  54 2.11  39 2.11
   8  0.250  0.750  0.649-  40 2.11  38 2.11  37 2.11  46 2.11  53 2.11
   9  0.000  0.250  0.352-  41 2.11  35 2.11  43 2.11  44 2.11  60 2.11
  10  0.250  0.500  0.352-  42 2.11  36 2.11  43 2.11  44 2.11  59 2.11
  11  0.000  0.500  0.451-  43 2.11  41 2.11  42 2.11  33 2.11  58 2.11  47 2.12
  12  0.250  0.250  0.451-  44 2.11  41 2.11  42 2.11  34 2.11  57 2.11  48 2.12
  13  0.000  0.250  0.550-  47 2.11  48 2.11  64 2.11  39 2.11  41 2.12  45 2.15
  14  0.250  0.500  0.550-  63 2.11  48 2.11  40 2.11  47 2.11  42 2.13  46 2.15
  15  0.000  0.500  0.649-  46 2.10  62 2.10  47 2.11  45 2.11  37 2.11
  16  0.250  0.250  0.649-  48 2.11  45 2.11  38 2.11  46 2.11  61 2.11
  17  0.500  0.750  0.352-  49 2.11  36 2.11  51 2.11  52 2.11  59 2.11
  18  0.750  0.000  0.352-  50 2.11  35 2.11  51 2.11  52 2.11  60 2.11
  19  0.500  0.000  0.451-  51 2.11  49 2.11  50 2.11  34 2.11  57 2.11  55 2.12
  20  0.750  0.750  0.451-  52 2.11  49 2.11  50 2.11  33 2.11  58 2.11  56 2.12
  21  0.500  0.750  0.550-  63 2.11  56 2.11  40 2.11  55 2.11  49 2.13  53 2.15
  22  0.750  0.000  0.550-  55 2.11  56 2.11  64 2.11  39 2.11  50 2.12  54 2.15
  23  0.500  0.000  0.649-  53 2.10  61 2.10  55 2.11  38 2.11  54 2.11
  24  0.750  0.750  0.649-  56 2.11  54 2.11  37 2.11  53 2.11  62 2.11
  25  0.500  0.250  0.352-  57 2.11  51 2.11  44 2.11  59 2.11  60 2.11
  26  0.750  0.500  0.352-  58 2.11  52 2.11  43 2.11  59 2.11  60 2.11
  27  0.500  0.500  0.451-  59 2.11  49 2.11  57 2.11  58 2.11  42 2.11  63 2.13
  28  0.750  0.250  0.451-  60 2.11  50 2.11  57 2.11  58 2.11  41 2.11  64 2.12
  29  0.500  0.250  0.550-  63 2.11  48 2.11  64 2.11  55 2.11  57 2.13  61 2.15
  30  0.750  0.500  0.550-  63 2.11  56 2.11  64 2.11  47 2.11  58 2.13  62 2.15
  31  0.500  0.500  0.651-  46 2.12  53 2.12  61 2.12  62 2.12  63 2.14
  32  0.750  0.250  0.649-  64 2.11  54 2.11  45 2.11  62 2.11  61 2.11
  33  0.000  0.750  0.451-   1 2.11   3 2.11   4 2.11  11 2.11  20 2.11   5 2.12
  34  0.250  0.000  0.451-   2 2.11   3 2.11   4 2.11  12 2.11  19 2.11   6 2.12
  35  0.000  0.000  0.352-   3 2.11   2 2.11   1 2.11   9 2.11  18 2.11
  36  0.250  0.750  0.352-   4 2.11   2 2.11   1 2.11  10 2.11  17 2.11
  37  0.000  0.750  0.651-   7 2.11   8 2.11  24 2.11  15 2.11   5 2.15
  38  0.250  0.000  0.651-   7 2.11   8 2.11  16 2.11  23 2.11   6 2.15
  39  0.000  0.000  0.550-   7 2.11   6 2.11   5 2.11  13 2.11  22 2.11   3 2.12
  40  0.250  0.750  0.550-   8 2.11   6 2.11   5 2.11  14 2.11  21 2.11   4 2.12
  41  0.000  0.250  0.451-   9 2.11   3 2.11  11 2.11  12 2.11  28 2.11  13 2.12
  42  0.250  0.500  0.451-  10 2.11   4 2.11  11 2.11  12 2.11  27 2.11  14 2.13
  43  0.000  0.500  0.352-  11 2.11   9 2.11  10 2.11   1 2.11  26 2.11
  44  0.250  0.250  0.352-  12 2.11   9 2.11  10 2.11   2 2.11  25 2.11
  45  0.000  0.250  0.651-   7 2.11  16 2.11  32 2.11  15 2.11  13 2.15
  46  0.249  0.500  0.651-  15 2.10   8 2.11  16 2.11  31 2.12  14 2.15
  47  0.000  0.500  0.550-  15 2.11  13 2.11   5 2.11  14 2.11  30 2.11  11 2.12
  48  0.250  0.250  0.550-  16 2.11  13 2.11   6 2.11  14 2.11  29 2.11  12 2.12
  49  0.500  0.750  0.451-  17 2.11   4 2.11  19 2.11  20 2.11  27 2.11  21 2.13
  50  0.750  0.000  0.451-  18 2.11   3 2.11  19 2.11  20 2.11  28 2.11  22 2.12
  51  0.500  0.000  0.352-  19 2.11  17 2.11  18 2.11   2 2.11  25 2.11
  52  0.750  0.750  0.352-  20 2.11  17 2.11  18 2.11   1 2.11  26 2.11
  53  0.500  0.751  0.651-  23 2.10   8 2.11  24 2.11  31 2.12  21 2.15
  54  0.750  0.000  0.651-   7 2.11  24 2.11  32 2.11  23 2.11  22 2.15
  55  0.500  0.000  0.550-  23 2.11  22 2.11   6 2.11  21 2.11  29 2.11  19 2.12
  56  0.750  0.750  0.550-  24 2.11  22 2.11   5 2.11  30 2.11  21 2.11  20 2.12
  57  0.500  0.250  0.451-  25 2.11  19 2.11  12 2.11  27 2.11  28 2.11  29 2.13
  58  0.750  0.500  0.451-  26 2.11  20 2.11  11 2.11  27 2.11  28 2.11  30 2.13
  59  0.500  0.500  0.352-  27 2.11  17 2.11  25 2.11  26 2.11  10 2.11
  60  0.750  0.250  0.352-  28 2.11  18 2.11  25 2.11  26 2.11   9 2.11
  61  0.500  0.249  0.651-  23 2.10  16 2.11  32 2.11  31 2.12  29 2.15
  62  0.751  0.500  0.651-  15 2.10  24 2.11  32 2.11  31 2.12  30 2.15
  63  0.500  0.500  0.550-  14 2.11  21 2.11  29 2.11  30 2.11  27 2.13  31 2.14
  64  0.750  0.250  0.550-  32 2.11  22 2.11  13 2.11  30 2.11  29 2.11  28 2.12

  LATTYP: Found a simple tetragonal cell.
 ALAT       =     8.4409846542
 C/A-ratio  =     2.5270438657

  Lattice vectors:

 A1 = (   8.4409846542,   0.0000000000,   0.0000000000)
 A2 = (   0.0000000000,   8.4409846542,   0.0000000000)
 A3 = (   0.0000000000,   0.0000000000,  21.3307384906)

Analysis of symmetry for initial positions (statically):
 Subroutine PRICEL returns:
 Original cell was already a primitive cell.

 Routine SETGRP: Setting up the symmetry group for a
 simple tetragonal supercell.

 Subroutine GETGRP returns: Found  8 space group operations
 (whereof  8 operations were pure point group operations)
 out of a pool of 16 trial point group operations.

The static configuration has the point symmetry C_4v.

Analysis of symmetry for dynamics (positions and initial velocities):
 Subroutine PRICEL returns:
 Original cell was already a primitive cell.

[...]

The dynamic configuration has the point symmetry C_4v.

Analysis of constrained symmetry for selective dynamics:
 Subroutine PRICEL returns:
 Original cell was already a primitive cell.

 Routine SETGRP: Setting up the symmetry group for a
 simple tetragonal supercell.

 Subroutine GETGRP returns: Found  8 space group operations
 (whereof  8 operations were pure point group operations)
 out of a pool of 16 trial point group operations.

The constrained configuration has the point symmetry C_4v.

 Subroutine INISYM returns: Found  8 space group operations
 (whereof  8 operations are pure point group operations),
 and found     1 'primitive' translations

                                     Primitive cell

  volume of cell :    1519.8199

  direct lattice vectors                    reciprocal lattice vectors
     8.440984654  0.000000000  0.000000000     0.118469591  0.000000000  0.000000000
     0.000000000  8.440984654  0.000000000     0.000000000  0.118469591  0.000000000
     0.000000000  0.000000000 21.330738491     0.000000000  0.000000000  0.046880702

  length of vectors
     8.440984654  8.440984654 21.330738491     0.118469591  0.118469591  0.046880702

  position of ions in fractional coordinates (direct lattice)
     0.000000000  0.750000000  0.351605267
     0.250000000  0.000000000  0.351605267
     0.000000000  0.000000000  0.450535089
     0.250000000  0.750000000  0.450535089
     0.000000000  0.749939268  0.550083239
     0.250060732  0.000000000  0.550083239
     0.000000000  0.000000000  0.648745309
     0.249858327  0.750141673  0.648569547
     0.000000000  0.250000000  0.351605267
     0.250000000  0.500000000  0.351605267
     0.000000000  0.500000000  0.450535089
     0.250000000  0.250000000  0.450535089
     0.000000000  0.250060732  0.550083239
     0.250378379  0.500000000  0.550219524
     0.000000000  0.500000000  0.648615280
     0.249858327  0.249858327  0.648569547
     0.500000000  0.750000000  0.351605267
     0.750000000  0.000000000  0.351605267
     0.500000000  0.000000000  0.450535089
     0.750000000  0.750000000  0.450535089
     0.500000000  0.749621621  0.550219524
     0.749939268  0.000000000  0.550083239
     0.500000000  0.000000000  0.648615280
     0.750141673  0.750141673  0.648569547
     0.500000000  0.250000000  0.351605267
     0.750000000  0.500000000  0.351605267
     0.500000000  0.500000000  0.450535089
     0.750000000  0.250000000  0.450535089
     0.500000000  0.250378379  0.550219524
     0.749621621  0.500000000  0.550219524
     0.500000000  0.500000000  0.650616960
     0.750141673  0.249858327  0.648569547
     0.000000000  0.750000000  0.450535089
     0.250000000  0.000000000  0.450535089
     0.000000000  0.000000000  0.351605267
     0.250000000  0.750000000  0.351605267
     0.000000000  0.750218533  0.650979255
     0.249781467  0.000000000  0.650979255
     0.000000000  0.000000000  0.549809890
     0.249945770  0.750054230  0.549859113
     0.000000000  0.250000000  0.450535089
     0.250000000  0.500000000  0.450535089
     0.000000000  0.500000000  0.351605267
     0.250000000  0.250000000  0.351605267
     0.000000000  0.249781467  0.650979255
     0.248822710  0.500000000  0.650882872
     0.000000000  0.500000000  0.549762666
     0.249945770  0.249945770  0.549859113
     0.500000000  0.750000000  0.450535089
     0.750000000  0.000000000  0.450535089
     0.500000000  0.000000000  0.351605267
     0.750000000  0.750000000  0.351605267
[...]
    318      10.4249      0.00000
    319      10.4775      0.00000
    320      10.5121      0.00000

[...]

 k-point     3 :       0.5000    0.5000    0.0000
  band No.  band energies     occupation
      1     -42.1111      2.00000
      2     -42.1110      2.00000
      3     -42.1110      2.00000
      4     -42.1110      2.00000
      5     -42.1076      2.00000
      6     -42.1075      2.00000
      7     -42.1075      2.00000
      8     -42.1074      2.00000
      9     -42.0628      2.00000
     10     -42.0176      2.00000
     11     -42.0175      2.00000
     12     -42.0175      2.00000
     13     -42.0175      2.00000
     14     -42.0013      2.00000
     15     -42.0013      2.00000
     16     -42.0013      2.00000
     17     -42.0013      2.00000
     18     -41.9946      2.00000
     19     -41.9946      2.00000
     20     -41.9946      2.00000
     21     -41.9946      2.00000
     22     -41.9781      2.00000
     23     -41.9781      2.00000
     24     -41.9781      2.00000
     25     -41.9781      2.00000
     26     -41.9476      2.00000
     27     -41.9476      2.00000
     28     -41.9246      2.00000
     29     -41.9246      2.00000
     30     -41.9246      2.00000
     31     -41.9244      2.00000
     32     -41.8977      2.00000
     33     -41.8975      2.00000
     34     -41.8975      2.00000
     35     -41.8241      2.00000
     36     -41.8238      2.00000
     37     -41.8195      2.00000
     38     -41.8195      2.00000
     39     -41.8153      2.00000
     40     -41.8152      2.00000
     41     -41.8133      2.00000
     42     -41.8133      2.00000
     43     -41.7871      2.00000
     44     -41.7855      2.00000
     45     -41.7801      2.00000
     46     -41.7801      2.00000
     47     -41.7765      2.00000
     48     -41.7753      2.00000
     49     -41.5848      2.00000
     50     -41.5846      2.00000
     51     -41.5845      2.00000
     52     -41.5845      2.00000
     53     -41.5703      2.00000
     54     -41.5691      2.00000
     55     -41.5688      2.00000
     56     -41.5688      2.00000
     57     -41.5669      2.00000
     58     -41.5669      2.00000
     59     -41.5661      2.00000
     60     -41.5653      2.00000
[...]
    306       9.6532      0.00000
    307       9.6534      0.00000
    308       9.6537      0.00000
    309       9.6541      0.00000
    310       9.7090      0.00000
    311       9.7298      0.00000
    312       9.7304      0.00000
    313       9.7499      0.00000
    314       9.7553      0.00000
    315       9.8250      0.00000
    316      10.1945      0.00000
    317      10.3106      0.00000
    318      10.3455      0.00000
    319      10.3598      0.00000
    320      10.3605      0.00000

 soft charge-density along one line, spin component           1
         0         1         2         3         4         5         6         7         8         9
 total charge-density along one line

------------------------ aborting loop because EDIFF is reached ----------------------------------------

  FORCE on cell =-STRESS in cart. coord.  units (eV):
  Direction    XX          YY          ZZ          XY          YZ          ZX
  Alpha Z   875.25928   875.25928   875.25928
  Ewald  161112.87060161112.87060************     0.00000     0.00000    -0.00000
  Hartree171143.90787171143.90787************    -0.00000    -0.00000    -0.00000
  E(xc)   -2522.50090 -2522.50090 -2525.20061     0.00000     0.00000    -0.00000
  Local  ************************342508.15454    -0.00000     0.00000    -0.00000
  n-local -2813.01598 -2813.83165 -2833.14483    -0.00000     0.00000    -0.00000
  augment  1077.74071  1077.74071  1068.68732     0.00000    -0.00000     0.00000
  Kinetic  7326.09204  7328.66415  7361.74362    -0.00002    -0.00002    -0.00001
  Fock        0.00000     0.00000     0.00000     0.00000     0.00000     0.00000
  Total      -9.29128    -9.29128    12.20944     0.00000     0.00000     0.00000
  in kB      -9.79477    -9.79477    12.87106     0.00000     0.00000     0.00000

 VOLUME and BASIS-vectors are now :
  energy-cutoff  :      600.00
  volume of cell :     1519.82
      direct lattice vectors                 reciprocal lattice vectors
     8.440984654  0.000000000  0.000000000     0.118469591  0.000000000  0.000000000
     0.000000000  8.440984654  0.000000000     0.000000000  0.118469591  0.000000000
     0.000000000  0.000000000 21.330738491     0.000000000  0.000000000  0.046880702

  length of vectors
     8.440984654  8.440984654 21.330738491     0.118469591  0.118469591  0.046880702

 FORCES acting on ions:
    Electron-Ion                     Ewald-Force                    Non-Local-Force
   -.342E-13 0.761E-01 0.207E+04   0.560E-13 -.754E-01 -.206E+04   0.000E+00 -.541E-03 -.647E+01
   -.761E-01 0.909E-13 0.207E+04   0.754E-01 0.671E-13 -.206E+04   0.541E-03 0.000E+00 -.647E+01
   -.478E-13 -.226E-12 0.684E+03   -.150E-10 0.150E-10 -.684E+03   0.529E-22 0.000E+00 0.444E+00
   -.440E+00 0.440E+00 0.683E+03   0.441E+00 -.441E+00 -.684E+03   -.833E-03 0.833E-03 0.480E+00
   -.344E-13 0.275E+00 -.690E+03   0.157E-11 -.271E+00 0.690E+03   -.106E-21 0.184E-02 -.152E+00
   -.275E+00 -.249E-12 -.690E+03   0.271E+00 -.151E-11 0.690E+03   -.184E-02 0.000E+00 -.152E+00
   -.343E-13 -.374E-12 -.205E+04   0.444E-12 -.416E-12 0.204E+04   0.000E+00 0.000E+00 0.535E+01
   -.136E+01 0.136E+01 -.205E+04   0.121E+01 -.121E+01 0.204E+04   0.132E+00 -.132E+00 0.541E+01
   -.425E-13 -.761E-01 0.207E+04   -.277E-12 0.754E-01 -.206E+04   0.000E+00 0.541E-03 -.647E+01
   -.115E+00 0.108E-11 0.207E+04   0.116E+00 0.131E-10 -.206E+04   -.112E-02 0.106E-21 -.647E+01
   -.423E-13 0.822E-12 0.683E+03   -.165E-10 0.000E+00 -.684E+03   0.106E-21 0.000E+00 0.422E+00
   -.440E+00 -.440E+00 0.683E+03   0.441E+00 0.441E+00 -.684E+03   -.833E-03 -.833E-03 0.480E+00
   -.383E-13 -.275E+00 -.690E+03   0.304E-11 0.271E+00 0.690E+03   0.529E-22 -.184E-02 -.152E+00
   -.164E+01 0.663E-12 -.691E+03   0.172E+01 0.178E-14 0.692E+03   -.845E-01 0.000E+00 -.213E+00
   -.120E-13 0.162E-12 -.205E+04   -.355E-13 -.995E-13 0.204E+04   0.132E-22 0.265E-22 0.532E+01
   -.136E+01 -.136E+01 -.205E+04   0.121E+01 0.121E+01 0.204E+04   0.132E+00 0.132E+00 0.541E+01
   0.891E-12 0.115E+00 0.207E+04   -.129E-10 -.116E+00 -.206E+04   0.106E-21 0.112E-02 -.647E+01
   0.761E-01 0.875E-13 0.207E+04   -.754E-01 0.471E-13 -.206E+04   -.541E-03 0.000E+00 -.647E+01
   0.814E-12 0.259E-12 0.683E+03   0.145E-11 0.150E-10 -.684E+03   0.212E-21 -.212E-21 0.422E+00
   0.440E+00 0.440E+00 0.683E+03   -.441E+00 -.441E+00 -.684E+03   0.833E-03 0.833E-03 0.480E+00
   0.799E-12 0.164E+01 -.691E+03   -.141E-11 -.172E+01 0.692E+03   -.132E-22 0.845E-01 -.213E+00
   0.275E+00 -.263E-12 -.690E+03   -.271E+00 -.156E-11 0.690E+03   0.184E-02 0.106E-21 -.152E+00
   0.874E-12 -.317E-12 -.205E+04   0.782E-13 -.355E-14 0.204E+04   0.000E+00 0.000E+00 0.532E+01
   0.136E+01 0.136E+01 -.205E+04   -.121E+01 -.121E+01 0.204E+04   -.132E+00 -.132E+00 0.541E+01
   0.895E-12 -.115E+00 0.207E+04   -.131E-10 0.116E+00 -.206E+04   0.318E-21 -.112E-02 -.647E+01
   0.115E+00 0.667E-12 0.207E+04   -.116E+00 0.131E-10 -.206E+04   0.112E-02 -.212E-21 -.647E+01
   0.811E-12 0.149E-11 0.681E+03   -.782E-13 0.355E-14 -.682E+03   0.106E-21 0.000E+00 0.581E+00
   0.440E+00 -.440E+00 0.683E+03   -.441E+00 0.441E+00 -.684E+03   0.833E-03 -.833E-03 0.480E+00
   0.804E-12 -.164E+01 -.691E+03   -.284E-13 0.172E+01 0.692E+03   -.232E-22 -.845E-01 -.213E+00
   0.164E+01 -.208E-11 -.691E+03   -.172E+01 0.000E+00 0.692E+03   0.845E-01 0.000E+00 -.213E+00
   0.908E-12 0.670E-12 -.207E+04   -.426E-13 -.391E-13 0.206E+04   0.000E+00 0.212E-21 0.573E+01
   0.136E+01 -.136E+01 -.205E+04   -.121E+01 0.121E+01 0.204E+04   -.132E+00 0.132E+00 0.541E+01
   -.466E-13 0.176E+00 0.512E+03   0.409E-13 -.177E+00 -.512E+03   0.000E+00 0.159E-02 -.773E-01
   -.176E+00 0.355E-12 0.512E+03   0.177E+00 0.391E-13 -.512E+03   -.159E-02 0.529E-22 -.773E-01
   -.422E-13 0.229E-12 0.155E+04   0.853E-11 -.844E-11 -.156E+04   -.331E-23 0.000E+00 0.355E+01
   -.725E-01 0.725E-01 0.155E+04   0.725E-01 -.725E-01 -.156E+04   0.226E-04 -.226E-04 0.355E+01
   -.340E-13 0.423E+00 -.156E+04   -.871E-12 -.450E+00 0.156E+04   0.000E+00 0.129E-01 -.520E+01
   -.423E+00 -.478E-12 -.156E+04   0.450E+00 0.881E-12 0.156E+04   -.129E-01 0.529E-22 -.520E+01
   -.411E-13 -.672E-12 -.512E+03   -.853E-13 0.639E-13 0.511E+03   0.000E+00 0.331E-23 0.217E+00
   -.696E+00 0.696E+00 -.511E+03   0.687E+00 -.687E+00 0.511E+03   0.179E-01 -.179E-01 0.318E+00
   -.740E-13 -.176E+00 0.512E+03   0.142E-13 0.177E+00 -.512E+03   0.000E+00 -.159E-02 -.773E-01
   -.414E+00 0.102E-11 0.511E+03   0.385E+00 -.764E-11 -.511E+03   0.402E-01 0.000E+00 -.894E-01
   -.301E-13 0.727E-12 0.155E+04   0.845E-11 -.796E-12 -.156E+04   0.106E-21 0.265E-22 0.355E+01
   -.725E-01 -.725E-01 0.155E+04   0.725E-01 0.725E-01 -.156E+04   0.226E-04 0.226E-04 0.355E+01
   -.307E-13 -.423E+00 -.156E+04   -.774E-12 0.450E+00 0.156E+04   -.212E-21 -.129E-01 -.520E+01
   -.307E+01 0.106E-11 -.156E+04   0.301E+01 0.810E-11 0.156E+04   0.202E+00 0.000E+00 -.488E+01
   -.513E-13 -.254E-12 -.511E+03   -.741E-11 0.711E-14 0.510E+03   0.397E-22 0.265E-22 0.300E+00
   -.696E+00 -.696E+00 -.511E+03   0.687E+00 0.687E+00 0.511E+03   0.179E-01 0.179E-01 0.318E+00
   0.296E-12 0.414E+00 0.511E+03   0.764E-11 -.385E+00 -.511E+03   -.265E-22 -.402E-01 -.894E-01
   0.176E+00 0.357E-12 0.512E+03   -.177E+00 0.142E-13 -.512E+03   0.159E-02 -.529E-22 -.773E-01
   0.380E-12 -.673E-12 0.155E+04   0.845E-12 -.846E-11 -.156E+04   0.000E+00 0.331E-22 0.355E+01
   0.725E-01 0.725E-01 0.155E+04   -.725E-01 -.725E-01 -.156E+04   -.226E-04 -.226E-04 0.355E+01
   0.348E-12 0.307E+01 -.156E+04   -.816E-11 -.301E+01 0.156E+04   0.106E-21 -.202E+00 -.488E+01
   0.423E+00 -.485E-12 -.156E+04   -.450E+00 0.924E-12 0.156E+04   0.129E-01 0.318E-21 -.520E+01
   0.303E-12 0.330E-12 -.511E+03   -.711E-14 0.738E-11 0.510E+03   0.000E+00 0.000E+00 0.300E+00
   0.696E+00 0.696E+00 -.511E+03   -.687E+00 -.687E+00 0.511E+03   -.179E-01 -.179E-01 0.318E+00
   0.326E-12 -.414E+00 0.511E+03   0.763E-11 0.385E+00 -.511E+03   -.265E-22 0.402E-01 -.894E-01
   0.414E+00 0.173E-11 0.511E+03   -.385E+00 -.769E-11 -.511E+03   -.402E-01 0.000E+00 -.894E-01
   0.365E-12 -.263E-12 0.155E+04   0.824E-12 -.838E-12 -.156E+04   0.000E+00 0.000E+00 0.355E+01
   0.725E-01 -.725E-01 0.155E+04   -.725E-01 0.725E-01 -.156E+04   -.226E-04 0.226E-04 0.355E+01
   0.348E-12 -.307E+01 -.156E+04   -.820E-11 0.301E+01 0.156E+04   0.529E-22 0.202E+00 -.488E+01
   0.307E+01 -.149E-11 -.156E+04   -.301E+01 0.819E-11 0.156E+04   -.202E+00 0.529E-22 -.488E+01
   0.309E-12 0.387E-12 -.520E+03   -.497E-13 0.426E-13 0.520E+03   0.000E+00 0.132E-22 -.133E+00
   0.696E+00 -.696E+00 -.511E+03   -.687E+00 0.687E+00 0.511E+03   -.179E-01 0.179E-01 0.318E+00
   0.268E-10 0.198E-10 0.166E+02   0.178E-12 -.744E-13 0.296E-11   -.243E-16 -.243E-16 -.167E+02

 POSITION                                       TOTAL-FORCE (eV/Angst)
      0.00000      6.33074      7.50000         0.000000      0.000153      0.148534
      2.11025      0.00000      7.50000        -0.000153     -0.000000      0.148534
      0.00000      0.00000      9.61025         0.000000     -0.000000      0.041317
      2.11025      6.33074      9.61025         0.000731     -0.000731      0.040727
      0.00000      6.33023     11.73368         0.000000      0.005949      0.038744
      2.11076      0.00000     11.73368        -0.005949     -0.000000      0.038744
      0.00000      0.00000     13.83822         0.000000     -0.000000      0.218817
      2.10905      6.33193     13.83447        -0.023911      0.023911      0.227586
      0.00000      2.11025      7.50000         0.000000     -0.000153      0.148534
      2.11025      4.22049      7.50000         0.000315     -0.000000      0.148114
      0.00000      4.22049      9.61025         0.000000     -0.000000      0.046186
      2.11025      2.11025      9.61025         0.000731      0.000731      0.040727
      0.00000      2.11076     11.73368         0.000000     -0.005949      0.038744
      2.11344      4.22049     11.73659        -0.007129     -0.000000      0.028046
      0.00000      4.22049     13.83544         0.000000     -0.000000      0.232737
      2.10905      2.10905     13.83447        -0.023911     -0.023911      0.227586
      4.22049      6.33074      7.50000         0.000000     -0.000315      0.148114
      6.33074      0.00000      7.50000         0.000153     -0.000000      0.148534
      4.22049      0.00000      9.61025         0.000000     -0.000000      0.046186
      6.33074      6.33074      9.61025        -0.000731     -0.000731      0.040727
      4.22049      6.32754     11.73659         0.000000      0.007129      0.028046
      6.33023      0.00000     11.73368         0.005949     -0.000000      0.038744
      4.22049      0.00000     13.83544         0.000000     -0.000000      0.232737
      6.33193      6.33193     13.83447         0.023911      0.023911      0.227586
      4.22049      2.11025      7.50000         0.000000      0.000315      0.148114
      6.33074      4.22049      7.50000        -0.000315     -0.000000      0.148114
      4.22049      4.22049      9.61025         0.000000     -0.000000      0.057562
      6.33074      2.11025      9.61025        -0.000731      0.000731      0.040727
      4.22049      2.11344     11.73659         0.000000     -0.007129      0.028046
      6.32754      4.22049     11.73659         0.007129     -0.000000      0.028046
      4.22049      4.22049     13.87814         0.000000     -0.000000     -0.086676
      6.33193      2.10905     13.83447         0.023911     -0.023911      0.227586
      0.00000      6.33074      9.61025         0.000000      0.000674      0.070360
      2.11025      0.00000      9.61025        -0.000674     -0.000000      0.070360
      0.00000      0.00000      7.50000         0.000000     -0.000000     -0.560725
      2.11025      6.33074      7.50000         0.000007     -0.000007     -0.560196
      0.00000      6.33258     13.88587         0.000000     -0.013804      0.018103
      2.10840      0.00000     13.88587         0.013804     -0.000000      0.018103
      0.00000      0.00000     11.72785         0.000000     -0.000000      0.006680
      2.10979      6.33120     11.72890         0.008408     -0.008408      0.005104
      0.00000      2.11025      9.61025         0.000000     -0.000674      0.070360
      2.11025      4.22049      9.61025         0.010831     -0.000000      0.081948
      0.00000      4.22049      7.50000         0.000000     -0.000000     -0.560249
      2.11025      2.11025      7.50000         0.000007      0.000007     -0.560196
      0.00000      2.10840     13.88587         0.000000      0.013804      0.018103
      2.10031      4.22049     13.88381         0.143402     -0.000000      0.098702
      0.00000      4.22049     11.72684         0.000000     -0.000000      0.020801
      2.10979      2.10979     11.72890         0.008408      0.008408      0.005104
      4.22049      6.33074      9.61025         0.000000     -0.010831      0.081948
      6.33074      0.00000      9.61025         0.000674     -0.000000      0.070360
      4.22049      0.00000      7.50000         0.000000     -0.000000     -0.560249
      6.33074      6.33074      7.50000        -0.000007     -0.000007     -0.560196
      4.22049      6.34068     13.88381         0.000000     -0.143402      0.098702
      6.33258      0.00000     13.88587        -0.013804     -0.000000      0.018103
      4.22049      0.00000     11.72684         0.000000     -0.000000      0.020801
      6.33120      6.33120     11.72890        -0.008408     -0.008408      0.005104
      4.22049      2.11025      9.61025         0.000000      0.010831      0.081948
      6.33074      4.22049      9.61025        -0.010831     -0.000000      0.081948
      4.22049      4.22049      7.50000         0.000000     -0.000000     -0.560498
      6.33074      2.11025      7.50000        -0.000007      0.000007     -0.560196
      4.22049      2.10031     13.88381         0.000000      0.143402      0.098702
      6.34068      4.22049     13.88381        -0.143402     -0.000000      0.098702
      4.22049      4.22049     11.73684         0.000000     -0.000000      0.021483
      6.33120      2.10979     11.72890        -0.008408      0.008408      0.005104
    total drift:                                0.000000      0.000000     -0.015705

  FREE ENERGIE OF THE ION-ELECTRON SYSTEM (eV)
  free  energy   TOTEN  =      -227.44907320 eV

  energy  without entropy=     -227.44907320  energy(sigma->0) =     -227.44907320