 vasp.6.3.0 20Jan22 (build Apr  1 2022 16:44:48) complex
 executed on        HPECrayEX_GCC date 2023.05.17  13:34:27

 INCAR:
   SYSTEM = MgO-rocksalt
   ISMEAR = 0
   SIGMA = 0.05
   EDIFF = 1E-6
   ALGO = ALL
   ISTART = 0
   IBRION = -1
   NSW = 0
   ISYM = 2
   ISIF = 2
   EDIFFG = -0.01
   DIPOL = 0.5 0.5 0.5
   IDIPOL = 3
   LDIPOL = .TRUE.
   GGA = PE
   IVDW = 1
   VDW_C6 = 1.75 0.70 0.63 0.70
   VDW_R0 = 1.452 1.342 1.243 1.342
   ENCUT = 600
   PREC = Normal
   LASPH = .TRUE.
   LREAL = .FALSE.
   ISPIN = 1
   NELM = 200
   NELMIN = 8
   NCORE = 4
   KPAR = 2
   LWAVE = .FALSE.
   LCHARG = .FALSE.

 POTCAR:    PAW_PBE C 08Apr2002
 POTCAR:    PAW_PBE O 08Apr2002
 POTCAR:    PAW_PBE Mg_pv 13Apr2007
 POTCAR:    PAW_PBE O 08Apr2002
 POTCAR:    PAW_PBE C 08Apr2002
   VRHFIN =C: s2p2

   TITEL  = PAW_PBE C 08Apr2002
   POMASS =   12.011; ZVAL   =    4.000    mass and valenz
   ENMAX  =  400.000; ENMIN  =  300.000 eV

[...]

   TITEL  = PAW_PBE Mg_pv 13Apr2007
   POMASS =   24.305; ZVAL   =    8.000    mass and valenz
   ENMAX  =  403.929; ENMIN  =  302.947 eV

   TITEL  = PAW_PBE O 08Apr2002
   POMASS =   16.000; ZVAL   =    6.000    mass and valenz
   ENMAX  =  400.000; ENMIN  =  300.000 eV

  PAW_PBE C 08Apr2002                   :
  PAW_PBE O 08Apr2002                   :
  PAW_PBE Mg_pv 13Apr2007               :
  PAW_PBE O 08Apr2002                   :

 POSCAR:  C  O Mg  O
  positions in direct lattice
 exchange correlation table for  LEXCH =        8
   RHO(1)=    0.500       N(1)  =     2000
   RHO(2)=  100.500       N(2)  =     4000

 ion  position               nearest neighbor table
   1  0.500  0.500  0.764-   2 1.15
   2  0.500  0.500  0.817-   1 1.15
   3  0.000  0.750  0.352-  35 2.11  37 2.11  38 2.11  45 2.11  54 2.11
   4  0.250  0.000  0.352-  36 2.11  37 2.11  38 2.11  46 2.11  53 2.11
   5  0.000  0.000  0.451-  37 2.11  36 2.11  35 2.11  43 2.11  52 2.11  41 2.12
   6  0.250  0.750  0.451-  38 2.11  36 2.11  35 2.11  44 2.11  51 2.11  42 2.12
   7  0.000  0.750  0.550-  49 2.11  42 2.11  58 2.11  41 2.11  35 2.12  39 2.15
   8  0.250  0.000  0.550-  57 2.11  50 2.11  42 2.11  41 2.11  36 2.12  40 2.15
   9  0.000  0.000  0.649-  39 2.11  40 2.11  47 2.11  56 2.11  41 2.11
  10  0.250  0.750  0.649-  42 2.11  40 2.11  39 2.11  48 2.11  55 2.11
  11  0.000  0.250  0.352-  43 2.11  37 2.11  45 2.11  46 2.11  62 2.11
  12  0.250  0.500  0.352-  44 2.11  38 2.11  45 2.11  46 2.11  61 2.11
  13  0.000  0.500  0.451-  45 2.11  43 2.11  44 2.11  35 2.11  60 2.11  49 2.12
  14  0.250  0.250  0.451-  46 2.11  43 2.11  44 2.11  36 2.11  59 2.11  50 2.12
  15  0.000  0.250  0.550-  49 2.11  50 2.11  66 2.11  41 2.11  43 2.12  47 2.15
  16  0.250  0.500  0.550-  65 2.11  50 2.11  42 2.11  49 2.11  44 2.13  48 2.15
  17  0.000  0.500  0.649-  48 2.10  64 2.10  49 2.11  47 2.11  39 2.11
  18  0.250  0.250  0.649-  50 2.11  47 2.11  40 2.11  48 2.11  63 2.11
  19  0.500  0.750  0.352-  51 2.11  38 2.11  53 2.11  54 2.11  61 2.11
  20  0.750  0.000  0.352-  52 2.11  37 2.11  53 2.11  54 2.11  62 2.11
  21  0.500  0.000  0.451-  53 2.11  51 2.11  52 2.11  36 2.11  59 2.11  57 2.12
  22  0.750  0.750  0.451-  54 2.11  51 2.11  52 2.11  35 2.11  60 2.11  58 2.12
  23  0.500  0.750  0.550-  65 2.11  58 2.11  42 2.11  57 2.11  51 2.13  55 2.15
  24  0.750  0.000  0.550-  57 2.11  58 2.11  66 2.11  41 2.11  52 2.12  56 2.15
  25  0.500  0.000  0.649-  55 2.10  63 2.10  57 2.11  40 2.11  56 2.11
  26  0.750  0.750  0.649-  58 2.11  56 2.11  39 2.11  55 2.11  64 2.11
  27  0.500  0.250  0.352-  59 2.11  53 2.11  46 2.11  61 2.11  62 2.11
  28  0.750  0.500  0.352-  60 2.11  54 2.11  45 2.11  61 2.11  62 2.11
  29  0.500  0.500  0.451-  61 2.11  51 2.11  59 2.11  60 2.11  44 2.11  65 2.13
  30  0.750  0.250  0.451-  62 2.11  52 2.11  59 2.11  60 2.11  43 2.11  66 2.12
  31  0.500  0.250  0.550-  65 2.11  50 2.11  66 2.11  57 2.11  59 2.13  63 2.15
  32  0.750  0.500  0.550-  65 2.11  58 2.11  66 2.11  49 2.11  60 2.13  64 2.15
  33  0.500  0.500  0.651-  48 2.12  55 2.12  63 2.12  64 2.12  65 2.14
  34  0.750  0.250  0.649-  66 2.11  56 2.11  47 2.11  64 2.11  63 2.11
  35  0.000  0.750  0.451-   3 2.11   5 2.11   6 2.11  13 2.11  22 2.11   7 2.12
  36  0.250  0.000  0.451-   4 2.11   5 2.11   6 2.11  14 2.11  21 2.11   8 2.12
  37  0.000  0.000  0.352-   5 2.11   4 2.11   3 2.11  11 2.11  20 2.11
  38  0.250  0.750  0.352-   6 2.11   4 2.11   3 2.11  12 2.11  19 2.11
  39  0.000  0.750  0.651-   9 2.11  10 2.11  26 2.11  17 2.11   7 2.15
  40  0.250  0.000  0.651-   9 2.11  10 2.11  18 2.11  25 2.11   8 2.15
  41  0.000  0.000  0.550-   9 2.11   8 2.11   7 2.11  15 2.11  24 2.11   5 2.12
  42  0.250  0.750  0.550-  10 2.11   8 2.11   7 2.11  16 2.11  23 2.11   6 2.12
  43  0.000  0.250  0.451-  11 2.11   5 2.11  13 2.11  14 2.11  30 2.11  15 2.12
  44  0.250  0.500  0.451-  12 2.11   6 2.11  13 2.11  14 2.11  29 2.11  16 2.13
  45  0.000  0.500  0.352-  13 2.11  11 2.11  12 2.11   3 2.11  28 2.11
  46  0.250  0.250  0.352-  14 2.11  11 2.11  12 2.11   4 2.11  27 2.11
  47  0.000  0.250  0.651-   9 2.11  18 2.11  34 2.11  17 2.11  15 2.15
  48  0.249  0.500  0.651-  17 2.10  10 2.11  18 2.11  33 2.12  16 2.15
  49  0.000  0.500  0.550-  17 2.11  15 2.11   7 2.11  16 2.11  32 2.11  13 2.12
  50  0.250  0.250  0.550-  18 2.11  15 2.11   8 2.11  16 2.11  31 2.11  14 2.12
  51  0.500  0.750  0.451-  19 2.11   6 2.11  21 2.11  22 2.11  29 2.11  23 2.13
  52  0.750  0.000  0.451-  20 2.11   5 2.11  21 2.11  22 2.11  30 2.11  24 2.12
  53  0.500  0.000  0.352-  21 2.11  19 2.11  20 2.11   4 2.11  27 2.11
  54  0.750  0.750  0.352-  22 2.11  19 2.11  20 2.11   3 2.11  28 2.11
  55  0.500  0.751  0.651-  25 2.10  10 2.11  26 2.11  33 2.12  23 2.15
  56  0.750  0.000  0.651-   9 2.11  26 2.11  34 2.11  25 2.11  24 2.15
  57  0.500  0.000  0.550-  25 2.11  24 2.11   8 2.11  23 2.11  31 2.11  21 2.12
  58  0.750  0.750  0.550-  26 2.11  24 2.11   7 2.11  32 2.11  23 2.11  22 2.12
  59  0.500  0.250  0.451-  27 2.11  21 2.11  14 2.11  29 2.11  30 2.11  31 2.13
  60  0.750  0.500  0.451-  28 2.11  22 2.11  13 2.11  29 2.11  30 2.11  32 2.13
  61  0.500  0.500  0.352-  29 2.11  19 2.11  27 2.11  28 2.11  12 2.11
  62  0.750  0.250  0.352-  30 2.11  20 2.11  27 2.11  28 2.11  11 2.11
  63  0.500  0.249  0.651-  25 2.10  18 2.11  34 2.11  33 2.12  31 2.15
  64  0.751  0.500  0.651-  17 2.10  26 2.11  34 2.11  33 2.12  32 2.15
  65  0.500  0.500  0.550-  16 2.11  23 2.11  31 2.11  32 2.11  29 2.13  33 2.14
  66  0.750  0.250  0.550-  34 2.11  24 2.11  15 2.11  32 2.11  31 2.11  30 2.12

  LATTYP: Found a simple tetragonal cell.
 ALAT       =     8.4409846542
 C/A-ratio  =     2.5270438657

  Lattice vectors:

 A1 = (   8.4409846542,   0.0000000000,   0.0000000000)
 A2 = (   0.0000000000,   8.4409846542,   0.0000000000)
 A3 = (   0.0000000000,   0.0000000000,  21.3307384906)

Analysis of symmetry for initial positions (statically):
 Subroutine PRICEL returns:
 Original cell was already a primitive cell.

 Routine SETGRP: Setting up the symmetry group for a
 simple tetragonal supercell.

 Subroutine GETGRP returns: Found  8 space group operations
 (whereof  8 operations were pure point group operations)
 out of a pool of 16 trial point group operations.

The static configuration has the point symmetry C_4v.

Analysis of symmetry for dynamics (positions and initial velocities):
 Subroutine PRICEL returns:
 Original cell was already a primitive cell.

 Routine SETGRP: Setting up the symmetry group for a
 simple tetragonal supercell.

 Subroutine GETGRP returns: Found  8 space group operations
 (whereof  8 operations were pure point group operations)
 out of a pool of 16 trial point group operations.

The dynamic configuration has the point symmetry C_4v.

 Subroutine INISYM returns: Found  8 space group operations
 (whereof  8 operations are pure point group operations),
 and found     1 'primitive' translations

                                     Primitive cell

  volume of cell :    1519.8199

  direct lattice vectors                    reciprocal lattice vectors
     8.440984654  0.000000000  0.000000000     0.118469591  0.000000000  0.000000000
     0.000000000  8.440984654  0.000000000     0.000000000  0.118469591  0.000000000
     0.000000000  0.000000000 21.330738491     0.000000000  0.000000000  0.046880702

  length of vectors
     8.440984654  8.440984654 21.330738491     0.118469591  0.118469591  0.046880702

  position of ions in fractional coordinates (direct lattice)
     0.500000000  0.500000000  0.763599453
     0.500000000  0.500000000  0.817363171
     0.000000000  0.750000000  0.351605267
     0.250000000  0.000000000  0.351605267
     0.000000000  0.000000000  0.450535089
     0.250000000  0.750000000  0.450535089
     0.000000000  0.749939268  0.550083239
     0.250060732  0.000000000  0.550083239
     0.000000000  0.000000000  0.648745309
     0.249858327  0.750141673  0.648569547
     0.000000000  0.250000000  0.351605267
     0.250000000  0.500000000  0.351605267
     0.000000000  0.500000000  0.450535089
     0.250000000  0.250000000  0.450535089
     0.000000000  0.250060732  0.550083239
     0.250378379  0.500000000  0.550219524
     0.000000000  0.500000000  0.648615280
     0.249858327  0.249858327  0.648569547
     0.500000000  0.750000000  0.351605267
     0.750000000  0.000000000  0.351605267
     0.500000000  0.000000000  0.450535089
     0.750000000  0.750000000  0.450535089
     0.500000000  0.749621621  0.550219524
     0.749939268  0.000000000  0.550083239
     0.500000000  0.000000000  0.648615280
     0.750141673  0.750141673  0.648569547
     0.500000000  0.250000000  0.351605267
     0.750000000  0.500000000  0.351605267
     0.500000000  0.500000000  0.450535089
     0.750000000  0.250000000  0.450535089
     0.500000000  0.250378379  0.550219524
     0.749621621  0.500000000  0.550219524
     0.500000000  0.500000000  0.650616960
     0.750141673  0.249858327  0.648569547
     0.000000000  0.750000000  0.450535089
     0.250000000  0.000000000  0.450535089
     0.000000000  0.000000000  0.351605267
     0.250000000  0.750000000  0.351605267
     0.000000000  0.750218533  0.650979255
     0.249781467  0.000000000  0.650979255
     0.000000000  0.000000000  0.549809890
     0.249945770  0.750054230  0.549859113
     0.000000000  0.250000000  0.450535089
     0.250000000  0.500000000  0.450535089
     0.000000000  0.500000000  0.351605267
     0.250000000  0.250000000  0.351605267
     0.000000000  0.249781467  0.650979255
     0.248822710  0.500000000  0.650882872
     0.000000000  0.500000000  0.549762666
     0.249945770  0.249945770  0.549859113
     0.500000000  0.750000000  0.450535089
     0.750000000  0.000000000  0.450535089
     0.500000000  0.000000000  0.351605267
     0.750000000  0.750000000  0.351605267
     0.500000000  0.751177290  0.650882872
     0.750218533  0.000000000  0.650979255
     0.500000000  0.000000000  0.549762666
     0.750054230  0.750054230  0.549859113
     0.500000000  0.250000000  0.450535089
     0.750000000  0.500000000  0.450535089
     0.500000000  0.500000000  0.351605267
     0.750000000  0.250000000  0.351605267
[...]
     23     -41.3407      2.00000
     24     -41.3407      2.00000
     25     -41.3016      2.00000
     26     -41.3015      2.00000
     27     -41.3015      2.00000
     28     -41.3015      2.00000
     29     -41.2809      2.00000
     30     -41.2631      2.00000
     31     -41.2631      2.00000
     32     -41.2018      2.00000
     33     -41.2018      2.00000
     34     -41.2012      2.00000
     35     -41.2007      2.00000
     36     -41.1932      2.00000
     37     -41.1931      2.00000
     38     -41.1918      2.00000
     39     -41.1918      2.00000
     40     -41.1641      2.00000
     41     -41.1641      2.00000
     42     -41.1549      2.00000
     43     -41.1514      2.00000
     44     -41.1454      2.00000
     45     -41.1424      2.00000
     46     -41.1339      2.00000
     47     -41.0561      2.00000
     48     -41.0561      2.00000
     49     -40.8895      2.00000
     50     -40.8892      2.00000
     51     -40.8892      2.00000
     52     -40.8892      2.00000
     53     -40.8737      2.00000
     54     -40.8725      2.00000
     55     -40.8725      2.00000
     56     -40.8721      2.00000
     57     -40.8702      2.00000
     58     -40.8701      2.00000
     59     -40.8701      2.00000
     60     -40.8689      2.00000
[...]
    306       9.3934      0.00000
    307       9.4076      0.00000
    308       9.4579      0.00000
    309       9.5262      0.00000
    310       9.5460      0.00000
    311       9.5536      0.00000
    312       9.7483      0.00000
    313       9.7771      0.00000
    314       9.8313      0.00000
    315       9.8359      0.00000
    316       9.8410      0.00000
    317      10.2359      0.00000
    318      10.2796      0.00000
    319      10.3482      0.00000
    320      10.3540      0.00000

 soft charge-density along one line, spin component           1
         0         1         2         3         4         5         6         7         8         9
 total charge-density along one line

------------------------ aborting loop because EDIFF is reached ----------------------------------------

  DFT-D2 method for vdW energy calculation

  Parameters of vdW forcefield:
         C6(Jnm^6/mol)     R0(A)
   C        1.750          1.452
   O        0.700          1.342
   Mg       0.630          1.243
   O        0.700          1.342

  vdW correction parametrized for the method pbe

  IVDW =   1
  VDW_RADIUS =    50.000 A
  VDW_S6 =     0.750
  VDW_SR =     1.000
  VDW_D =    20.000
  LVDW_EWALD = F

  Number of pair interactions contributing to vdW energy:  768286
  Edisp (eV):   -3.69563

  FORCE on cell =-STRESS in cart. coord.  units (eV):
  Direction    XX          YY          ZZ          XY          YZ          ZX
  Alpha Z   907.96410   907.96410   907.96410
  Ewald  157715.86896157715.86896************     0.00000     0.00000    -0.00000
  Hartree168123.34601168123.34601************    -0.00000    -0.00000    -0.00000
  E(xc)   -2500.81573 -2500.81573 -2504.71482    -0.00000    -0.00000    -0.00000
  Local  ************************335427.91651    -0.00000     0.00000    -0.00000
  n-local -2830.49356 -2831.30706 -2861.82242    -0.00000    -0.00000     0.00000
  augment  1054.00374  1054.00374  1044.16086    -0.00000     0.00000    -0.00000
  Kinetic  7494.24280  7496.83389  7517.77783    -0.00000     0.00000    -0.00001
  Fock        0.00000     0.00000     0.00000     0.00000     0.00000     0.00000
  vdW        -5.38084    -5.38084    -4.46068    -0.00000     0.00000    -0.00000
  Total     -24.05874   -24.05874    -0.53637     0.00000     0.00000    -0.00000
  in kB     -25.36246   -25.36246    -0.56544     0.00000     0.00000    -0.00000

 VOLUME and BASIS-vectors are now :
  energy-cutoff  :      600.00
  volume of cell :     1519.82
      direct lattice vectors                 reciprocal lattice vectors
     8.440984654  0.000000000  0.000000000     0.118469591  0.000000000  0.000000000
     0.000000000  8.440984654  0.000000000     0.000000000  0.118469591  0.000000000
     0.000000000  0.000000000 21.330738491     0.000000000  0.000000000  0.046880702

  length of vectors
     8.440984654  8.440984654 21.330738491     0.118469591  0.118469591  0.046880702

 FORCES acting on ions:
    Electron-Ion                     Ewald-Force                    Non-Local-Force
   0.116E-12 -.242E-12 -.844E+03   0.222E-13 -.311E-14 0.818E+03   0.000E+00 -.265E-22 0.267E+02
   0.449E-12 0.687E-12 -.146E+04   -.999E-14 -.222E-14 0.152E+04   0.662E-23 0.000E+00 -.599E+02
   -.393E-13 -.132E+00 0.208E+04   0.560E-13 0.132E+00 -.207E+04   -.265E-22 -.221E-03 -.704E+01
   0.132E+00 0.123E-12 0.208E+04   -.132E+00 0.671E-13 -.207E+04   0.221E-03 -.265E-22 -.704E+01
   -.522E-13 -.330E-12 0.713E+03   -.150E-10 0.150E-10 -.714E+03   -.132E-22 0.000E+00 0.500E+00
   0.492E+00 -.492E+00 0.714E+03   -.488E+00 0.488E+00 -.715E+03   -.263E-02 0.263E-02 0.528E+00
   -.608E-13 -.290E+01 -.642E+03   0.157E-11 0.289E+01 0.643E+03   0.132E-22 0.130E-01 -.164E+00
   0.290E+01 0.189E-12 -.642E+03   -.289E+01 -.151E-11 0.643E+03   -.130E-01 0.000E+00 -.164E+00
   -.428E-13 0.354E-12 -.200E+04   0.444E-12 -.416E-12 0.200E+04   0.000E+00 -.265E-22 0.596E+01
   0.185E+02 -.185E+02 -.198E+04   -.186E+02 0.186E+02 0.198E+04   0.949E-01 -.949E-01 0.605E+01
   -.418E-13 0.132E+00 0.208E+04   -.277E-12 -.132E+00 -.207E+04   0.662E-23 0.221E-03 -.704E+01
   0.128E+00 0.835E-12 0.208E+04   -.126E+00 0.131E-10 -.207E+04   -.172E-02 0.265E-22 -.704E+01
   -.584E-13 0.714E-12 0.715E+03   -.165E-10 0.000E+00 -.715E+03   0.000E+00 0.000E+00 0.466E+00
   0.492E+00 0.492E+00 0.714E+03   -.488E+00 -.488E+00 -.715E+03   -.263E-02 -.263E-02 0.528E+00
   -.571E-13 0.290E+01 -.642E+03   0.304E-11 -.289E+01 0.643E+03   0.000E+00 -.130E-01 -.164E+00
   0.428E+01 0.162E-11 -.635E+03   -.420E+01 0.178E-14 0.636E+03   -.783E-01 -.596E-22 -.257E+00
   -.508E-13 0.781E-12 -.199E+04   -.355E-13 -.995E-13 0.198E+04   0.000E+00 0.000E+00 0.597E+01
   0.185E+02 0.185E+02 -.198E+04   -.186E+02 -.186E+02 0.198E+04   0.949E-01 0.949E-01 0.605E+01
   0.928E-12 -.128E+00 0.208E+04   -.129E-10 0.126E+00 -.207E+04   0.265E-22 0.172E-02 -.704E+01
   -.132E+00 0.842E-13 0.208E+04   0.132E+00 0.471E-13 -.207E+04   -.221E-03 0.000E+00 -.704E+01
   0.828E-12 -.455E-12 0.715E+03   0.145E-11 0.150E-10 -.715E+03   0.496E-23 -.265E-22 0.466E+00
   -.492E+00 -.492E+00 0.714E+03   0.488E+00 0.488E+00 -.715E+03   0.263E-02 0.263E-02 0.528E+00
   0.841E-12 -.428E+01 -.635E+03   -.141E-11 0.420E+01 0.636E+03   -.132E-22 0.783E-01 -.257E+00
   -.290E+01 0.141E-12 -.642E+03   0.289E+01 -.156E-11 0.643E+03   0.130E-01 0.000E+00 -.164E+00
   0.906E-12 -.875E-12 -.199E+04   0.782E-13 -.355E-14 0.198E+04   0.000E+00 0.000E+00 0.597E+01
   -.185E+02 -.185E+02 -.198E+04   0.186E+02 0.186E+02 0.198E+04   -.949E-01 -.949E-01 0.605E+01
   0.938E-12 0.128E+00 0.208E+04   -.131E-10 -.126E+00 -.207E+04   -.132E-22 -.172E-02 -.704E+01
   -.128E+00 0.337E-12 0.208E+04   0.126E+00 0.131E-10 -.207E+04   0.172E-02 0.000E+00 -.704E+01
   0.868E-12 0.210E-11 0.715E+03   -.782E-13 0.355E-14 -.715E+03   -.662E-23 0.000E+00 0.597E+00
   -.492E+00 0.492E+00 0.714E+03   0.488E+00 -.488E+00 -.715E+03   0.263E-02 -.263E-02 0.528E+00
   0.822E-12 0.428E+01 -.635E+03   -.284E-13 -.420E+01 0.636E+03   -.529E-22 -.783E-01 -.257E+00
   -.428E+01 -.108E-11 -.635E+03   0.420E+01 0.000E+00 0.636E+03   0.783E-01 0.000E+00 -.257E+00
   0.914E-12 0.138E-11 -.191E+04   -.426E-13 -.391E-13 0.191E+04   -.331E-23 0.000E+00 0.367E+01
   -.185E+02 0.185E+02 -.198E+04   0.186E+02 -.186E+02 0.198E+04   -.949E-01 0.949E-01 0.605E+01
   -.679E-13 -.416E+00 0.535E+03   0.409E-13 0.412E+00 -.535E+03   -.662E-23 0.653E-02 -.908E-01
   0.416E+00 -.236E-13 0.535E+03   -.412E+00 0.391E-13 -.535E+03   -.653E-02 -.265E-22 -.908E-01
   -.339E-13 0.404E-12 0.156E+04   0.853E-11 -.844E-11 -.156E+04   0.132E-22 0.000E+00 0.349E+01
   0.966E-01 -.966E-01 0.156E+04   -.959E-01 0.959E-01 -.156E+04   -.105E-02 0.105E-02 0.349E+01
   -.322E-13 -.744E+01 -.152E+04   -.871E-12 0.738E+01 0.153E+04   0.132E-22 0.528E-01 -.503E+01
   0.744E+01 -.276E-12 -.152E+04   -.738E+01 0.881E-12 0.153E+04   -.528E-01 0.265E-22 -.503E+01
   -.469E-13 -.943E-13 -.478E+03   -.853E-13 0.639E-13 0.478E+03   0.000E+00 -.662E-23 0.253E+00
   0.264E+01 -.264E+01 -.473E+03   -.263E+01 0.263E+01 0.473E+03   -.488E-02 0.488E-02 0.325E+00
   -.699E-13 0.416E+00 0.535E+03   0.142E-13 -.412E+00 -.535E+03   0.265E-22 -.653E-02 -.908E-01
   0.399E+00 0.532E-12 0.536E+03   -.425E+00 -.764E-11 -.536E+03   0.345E-01 0.993E-23 -.111E+00
   -.333E-13 0.936E-12 0.156E+04   0.845E-11 -.796E-12 -.156E+04   -.265E-22 0.000E+00 0.349E+01
   0.966E-01 0.966E-01 0.156E+04   -.959E-01 -.959E-01 -.156E+04   -.105E-02 -.105E-02 0.349E+01
   -.117E-13 0.744E+01 -.152E+04   -.774E-12 -.738E+01 0.153E+04   0.331E-22 -.528E-01 -.503E+01
   0.243E+02 0.646E-12 -.149E+04   -.240E+02 0.810E-11 0.149E+04   -.363E+00 0.662E-23 -.504E+01
   -.649E-13 0.151E-11 -.473E+03   -.741E-11 0.711E-14 0.473E+03   0.000E+00 0.000E+00 0.278E+00
   0.264E+01 0.264E+01 -.473E+03   -.263E+01 -.263E+01 0.473E+03   -.488E-02 -.488E-02 0.325E+00
   0.332E-12 -.399E+00 0.536E+03   0.764E-11 0.425E+00 -.536E+03   0.000E+00 -.345E-01 -.111E+00
   -.416E+00 0.842E-14 0.535E+03   0.412E+00 0.142E-13 -.535E+03   0.653E-02 0.132E-22 -.908E-01
   0.359E-12 -.106E-11 0.156E+04   0.845E-12 -.846E-11 -.156E+04   0.000E+00 0.529E-22 0.349E+01
   -.966E-01 -.966E-01 0.156E+04   0.959E-01 0.959E-01 -.156E+04   0.105E-02 0.105E-02 0.349E+01
   0.397E-12 -.243E+02 -.149E+04   -.816E-11 0.240E+02 0.149E+04   -.132E-22 0.363E+00 -.504E+01
   -.744E+01 -.343E-12 -.152E+04   0.738E+01 0.924E-12 0.153E+04   0.528E-01 0.000E+00 -.503E+01
   0.318E-12 0.296E-12 -.473E+03   -.711E-14 0.738E-11 0.473E+03   -.662E-23 0.000E+00 0.278E+00
   -.264E+01 -.264E+01 -.473E+03   0.263E+01 0.263E+01 0.473E+03   0.488E-02 0.488E-02 0.325E+00
   0.335E-12 0.399E+00 0.536E+03   0.763E-11 -.425E+00 -.536E+03   -.662E-23 0.345E-01 -.111E+00
   -.399E+00 0.150E-11 0.536E+03   0.425E+00 -.769E-11 -.536E+03   -.345E-01 0.000E+00 -.111E+00
   0.339E-12 -.512E-12 0.156E+04   0.824E-12 -.838E-12 -.156E+04   -.132E-22 0.000E+00 0.348E+01
   -.966E-01 0.966E-01 0.156E+04   0.959E-01 -.959E-01 -.156E+04   0.105E-02 -.105E-02 0.349E+01
   0.371E-12 0.243E+02 -.149E+04   -.820E-11 -.240E+02 0.149E+04   -.662E-23 -.363E+00 -.504E+01
   -.243E+02 -.197E-11 -.149E+04   0.240E+02 0.819E-11 0.149E+04   0.363E+00 -.529E-22 -.504E+01
   0.320E-12 -.620E-12 -.473E+03   -.497E-13 0.426E-13 0.473E+03   -.331E-23 -.827E-24 -.204E+00
   -.264E+01 0.264E+01 -.473E+03   0.263E+01 -.263E+01 0.473E+03   0.488E-02 -.488E-02 0.325E+00
   0.266E-10 0.179E-10 0.526E+02   0.306E-12 -.480E-13 0.568E-12   0.139E-16 0.147E-16 -.526E+02

 POSITION                                       TOTAL-FORCE (eV/Angst)
      4.22049      4.22049     16.28814         0.000000     -0.000000      0.371861
      4.22049      4.22049     17.43496         0.000000     -0.000000     -0.352660
      0.00000      6.33074      7.50000         0.000000      0.000040      0.350016
      2.11025      0.00000      7.50000        -0.000040     -0.000000      0.350016
      0.00000      0.00000      9.61025         0.000000     -0.000000      0.031156
      2.11025      6.33074      9.61025         0.001532     -0.001532      0.032644
      0.00000      6.33023     11.73368         0.000000      0.000874      0.035880
      2.11076      0.00000     11.73368        -0.000874     -0.000000      0.035880
      0.00000      0.00000     13.83822         0.000000     -0.000000     -0.012385
      2.10905      6.33193     13.83447        -0.007369      0.007369     -0.015664
      0.00000      2.11025      7.50000         0.000000     -0.000040      0.350016
      2.11025      4.22049      7.50000         0.000564     -0.000000      0.350107
      0.00000      4.22049      9.61025         0.000000     -0.000000      0.039134
      2.11025      2.11025      9.61025         0.001532      0.001532      0.032644
      0.00000      2.11076     11.73368         0.000000     -0.000874      0.035880
      2.11344      4.22049     11.73659        -0.003992     -0.000000      0.036060
      0.00000      4.22049     13.83544         0.000000     -0.000000     -0.015299
      2.10905      2.10905     13.83447        -0.007369     -0.007369     -0.015664
      4.22049      6.33074      7.50000         0.000000     -0.000564      0.350107
      6.33074      0.00000      7.50000         0.000040     -0.000000      0.350016
      4.22049      0.00000      9.61025         0.000000     -0.000000      0.039134
      6.33074      6.33074      9.61025        -0.001532     -0.001532      0.032644
      4.22049      6.32754     11.73659         0.000000      0.003992      0.036060
      6.33023      0.00000     11.73368         0.000874     -0.000000      0.035880
      4.22049      0.00000     13.83544         0.000000     -0.000000     -0.015299
      6.33193      6.33193     13.83447         0.007369      0.007369     -0.015664
      4.22049      2.11025      7.50000         0.000000      0.000564      0.350107
      6.33074      4.22049      7.50000        -0.000564     -0.000000      0.350107
      4.22049      4.22049      9.61025         0.000000     -0.000000      0.045785
      6.33074      2.11025      9.61025        -0.001532      0.001532      0.032644
      4.22049      2.11344     11.73659         0.000000     -0.003992      0.036060
      6.32754      4.22049     11.73659         0.003992     -0.000000      0.036060
      4.22049      4.22049     13.87814         0.000000     -0.000000      0.049047
      6.33193      2.10905     13.83447         0.007369     -0.007369     -0.015664
      0.00000      6.33074      9.61025         0.000000      0.001914      0.064408
      2.11025      0.00000      9.61025        -0.001914     -0.000000      0.064408
      0.00000      0.00000      7.50000         0.000000     -0.000000     -0.516844
      2.11025      6.33074      7.50000        -0.000295      0.000295     -0.516570
      0.00000      6.33258     13.88587         0.000000     -0.002742      0.016775
      2.10840      0.00000     13.88587         0.002742     -0.000000      0.016775
      0.00000      0.00000     11.72785         0.000000     -0.000000      0.017324
      2.10979      6.33120     11.72890         0.004153     -0.004153      0.012715
      0.00000      2.11025      9.61025         0.000000     -0.001914      0.064408
      2.11025      4.22049      9.61025         0.008976     -0.000000      0.073274
      0.00000      4.22049      7.50000         0.000000     -0.000000     -0.516700
      2.11025      2.11025      7.50000        -0.000295     -0.000295     -0.516570
      0.00000      2.10840     13.88587         0.000000      0.002742      0.016775
      2.10031      4.22049     13.88381        -0.011556     -0.000000      0.017997
      0.00000      4.22049     11.72684         0.000000     -0.000000      0.016002
      2.10979      2.10979     11.72890         0.004153      0.004153      0.012715
      4.22049      6.33074      9.61025         0.000000     -0.008976      0.073274
      6.33074      0.00000      9.61025         0.001914     -0.000000      0.064408
      4.22049      0.00000      7.50000         0.000000     -0.000000     -0.516700
      6.33074      6.33074      7.50000         0.000295      0.000295     -0.516570
      4.22049      6.34068     13.88381         0.000000      0.011556      0.017997
      6.33258      0.00000     13.88587        -0.002742     -0.000000      0.016775
      4.22049      0.00000     11.72684         0.000000     -0.000000      0.016002
      6.33120      6.33120     11.72890        -0.004153     -0.004153      0.012715
      4.22049      2.11025      9.61025         0.000000      0.008976      0.073274
      6.33074      4.22049      9.61025        -0.008976     -0.000000      0.073274
      4.22049      4.22049      7.50000         0.000000     -0.000000     -0.517234
      6.33074      2.11025      7.50000         0.000295     -0.000295     -0.516570
      4.22049      2.10031     13.88381         0.000000     -0.011556      0.017997
      6.34068      4.22049     13.88381         0.011556     -0.000000      0.017997
      4.22049      4.22049     11.73684         0.000000     -0.000000      0.007101
      6.33120      2.10979     11.72890        -0.004153      0.004153      0.012715
    total drift:                                0.000000      0.000000     -0.012903

  FREE ENERGIE OF THE ION-ELECTRON SYSTEM (eV)
  free  energy   TOTEN  =      -390.81200184 eV

  energy  without entropy=     -390.81200184  energy(sigma->0) =     -390.81200184