 vasp.6.3.0 20Jan22 (build Apr  1 2022 16:44:48) complex
 executed on        HPECrayEX_GCC date 2023.05.17  21:50:57

 INCAR:
   SYSTEM = MgO-rocksalt
   ISMEAR = 0
   SIGMA = 0.05
   EDIFF = 1E-6
   ALGO = ALL
   ISTART = 0
   IBRION = -1
   NSW = 0
   ISYM = 2
   ISIF = 2
   EDIFFG = -0.01
   DIPOL = 0.5 0.5 0.5
   IDIPOL = 3
   LDIPOL = .TRUE.
   LHFCALC = .TRUE.
   GGA = PE
   IVDW = 13
   VDW_S8 = 1.2007
   VDW_A1 = 0.4009
   VDW_A2 = 5.0293
   ENCUT = 600
   PREC = Normal
   LASPH = .TRUE.
   LREAL = .FALSE.
   ISPIN = 1
   NELM = 200
   NELMIN = 8
   NCORE = 8
   KPAR = 1
   LWAVE = .FALSE.
   LCHARG = .FALSE.

 POTCAR:    PAW_PBE C 08Apr2002
 POTCAR:    PAW_PBE O 08Apr2002
 POTCAR:    PAW_PBE Mg_pv 13Apr2007
 POTCAR:    PAW_PBE O 08Apr2002
|           W    W    AA    RRRRR   N    N  II  N    N   GGGG   !!!           |
|           W    W   A  A   R    R  NN   N  II  NN   N  G    G  !!!           |
|           W    W  A    A  R    R  N N  N  II  N N  N  G       !!!           |
|           W WW W  AAAAAA  RRRRR   N  N N  II  N  N N  G  GGG   !            |
|           WW  WW  A    A  R   R   N   NN  II  N   NN  G    G                |
|           W    W  A    A  R    R  N    N  II  N    N   GGGG   !!!           |
|     You have selected ISYM=2 for a HF type calculation. This will           |
|     symmetrize the charge density but not the exchange potential. I         |
|     suggest to use ISYM=3 instead. This uses symmetry to obtain the         |
|     orbitals at all k-points in the Brillouin zone, but does not apply      |
|     symmetry to the Hartree potential directly. The resultant charge        |
|     might have lower symmetry than the crystal but, at least, Hartree       |
|     and exchange are fully compatible.                                      |

   TITEL  = PAW_PBE C 08Apr2002
   POMASS =   12.011; ZVAL   =    4.000    mass and valenz
   ENMAX  =  400.000; ENMIN  =  300.000 eV

[...]

   TITEL  = PAW_PBE Mg_pv 13Apr2007
   POMASS =   24.305; ZVAL   =    8.000    mass and valenz
   ENMAX  =  403.929; ENMIN  =  302.947 eV

   TITEL  = PAW_PBE O 08Apr2002
   POMASS =   16.000; ZVAL   =    6.000    mass and valenz
   ENMAX  =  400.000; ENMIN  =  300.000 eV

  PAW_PBE C 08Apr2002                   :
  PAW_PBE O 08Apr2002                   :
  PAW_PBE Mg_pv 13Apr2007               :
  PAW_PBE O 08Apr2002                   :

 POSCAR:  C  O Mg  O
  positions in direct lattice
|           W    W    AA    RRRRR   N    N  II  N    N   GGGG   !!!           |
|           W    W   A  A   R    R  NN   N  II  NN   N  G    G  !!!           |
|           W    W  A    A  R    R  N N  N  II  N N  N  G       !!!           |
|           W WW W  AAAAAA  RRRRR   N  N N  II  N  N N  G  GGG   !            |
|           WW  WW  A    A  R   R   N   NN  II  N   NN  G    G                |
|           W    W  A    A  R    R  N    N  II  N    N   GGGG   !!!           |
|     Specifying the vdW parameters                                           |
|     VDW_S8 = 1.201                                                          |
|     VDW_A1 = 0.401                                                          |
|     VDW_A2 = 5.029                                                          |
|     in the INCAR file will overwrite the defaults for pbe0. Please make     |
|     sure that is what you intended.                                         |

 ion  position               nearest neighbor table
   1  0.500  0.500  0.765-   2 1.15
   2  0.500  0.500  0.819-   1 1.15
   3  0.000  0.750  0.352-  35 2.11  37 2.11  38 2.11  45 2.11  54 2.11
   4  0.250  0.000  0.352-  36 2.11  37 2.11  38 2.11  46 2.11  53 2.11
   5  0.000  0.000  0.451-  37 2.11  36 2.11  35 2.11  43 2.11  52 2.11  41 2.12
   6  0.250  0.750  0.451-  38 2.11  36 2.11  35 2.11  44 2.11  51 2.11  42 2.12
   7  0.000  0.750  0.550-  49 2.11  42 2.11  58 2.11  41 2.11  35 2.12  39 2.15
   8  0.250  0.000  0.550-  57 2.11  50 2.11  42 2.11  41 2.11  36 2.12  40 2.15
   9  0.000  0.000  0.649-  39 2.11  40 2.11  47 2.11  56 2.11  41 2.11
  10  0.250  0.750  0.649-  42 2.11  40 2.11  39 2.11  48 2.11  55 2.11
  11  0.000  0.250  0.352-  43 2.11  37 2.11  45 2.11  46 2.11  62 2.11
  12  0.250  0.500  0.352-  44 2.11  38 2.11  45 2.11  46 2.11  61 2.11
  13  0.000  0.500  0.451-  45 2.11  43 2.11  44 2.11  35 2.11  60 2.11  49 2.12
  14  0.250  0.250  0.451-  46 2.11  43 2.11  44 2.11  36 2.11  59 2.11  50 2.12
  15  0.000  0.250  0.550-  49 2.11  50 2.11  66 2.11  41 2.11  43 2.12  47 2.15
  16  0.250  0.500  0.550-  65 2.11  50 2.11  42 2.11  49 2.11  44 2.13  48 2.15
  17  0.000  0.500  0.649-  48 2.10  64 2.10  49 2.11  47 2.11  39 2.11
  18  0.250  0.250  0.649-  50 2.11  47 2.11  40 2.11  48 2.11  63 2.11
  19  0.500  0.750  0.352-  51 2.11  38 2.11  53 2.11  54 2.11  61 2.11
  20  0.750  0.000  0.352-  52 2.11  37 2.11  53 2.11  54 2.11  62 2.11
  21  0.500  0.000  0.451-  53 2.11  51 2.11  52 2.11  36 2.11  59 2.11  57 2.12
  22  0.750  0.750  0.451-  54 2.11  51 2.11  52 2.11  35 2.11  60 2.11  58 2.12
  23  0.500  0.750  0.550-  65 2.11  58 2.11  42 2.11  57 2.11  51 2.13  55 2.15
  24  0.750  0.000  0.550-  57 2.11  58 2.11  66 2.11  41 2.11  52 2.12  56 2.15
  25  0.500  0.000  0.649-  55 2.10  63 2.10  57 2.11  40 2.11  56 2.11
  26  0.750  0.750  0.649-  58 2.11  56 2.11  39 2.11  55 2.11  64 2.11
  27  0.500  0.250  0.352-  59 2.11  53 2.11  46 2.11  61 2.11  62 2.11
  28  0.750  0.500  0.352-  60 2.11  54 2.11  45 2.11  61 2.11  62 2.11
  29  0.500  0.500  0.451-  61 2.11  51 2.11  59 2.11  60 2.11  44 2.11  65 2.13
  30  0.750  0.250  0.451-  62 2.11  52 2.11  59 2.11  60 2.11  43 2.11  66 2.12
  31  0.500  0.250  0.550-  65 2.11  50 2.11  66 2.11  57 2.11  59 2.13  63 2.15
  32  0.750  0.500  0.550-  65 2.11  58 2.11  66 2.11  49 2.11  60 2.13  64 2.15
  33  0.500  0.500  0.651-  48 2.12  55 2.12  63 2.12  64 2.12  65 2.14
  34  0.750  0.250  0.649-  66 2.11  56 2.11  47 2.11  64 2.11  63 2.11
  35  0.000  0.750  0.451-   3 2.11   5 2.11   6 2.11  13 2.11  22 2.11   7 2.12
  36  0.250  0.000  0.451-   4 2.11   5 2.11   6 2.11  14 2.11  21 2.11   8 2.12
  37  0.000  0.000  0.352-   5 2.11   4 2.11   3 2.11  11 2.11  20 2.11
  38  0.250  0.750  0.352-   6 2.11   4 2.11   3 2.11  12 2.11  19 2.11
  39  0.000  0.750  0.651-   9 2.11  10 2.11  26 2.11  17 2.11   7 2.15
  40  0.250  0.000  0.651-   9 2.11  10 2.11  18 2.11  25 2.11   8 2.15
  41  0.000  0.000  0.550-   9 2.11   8 2.11   7 2.11  15 2.11  24 2.11   5 2.12
  42  0.250  0.750  0.550-  10 2.11   8 2.11   7 2.11  16 2.11  23 2.11   6 2.12
  43  0.000  0.250  0.451-  11 2.11   5 2.11  13 2.11  14 2.11  30 2.11  15 2.12
  44  0.250  0.500  0.451-  12 2.11   6 2.11  13 2.11  14 2.11  29 2.11  16 2.13
  45  0.000  0.500  0.352-  13 2.11  11 2.11  12 2.11   3 2.11  28 2.11
  46  0.250  0.250  0.352-  14 2.11  11 2.11  12 2.11   4 2.11  27 2.11
  47  0.000  0.250  0.651-   9 2.11  18 2.11  34 2.11  17 2.11  15 2.15
  48  0.249  0.500  0.651-  17 2.10  10 2.11  18 2.11  33 2.12  16 2.15
  49  0.000  0.500  0.550-  17 2.11  15 2.11   7 2.11  16 2.11  32 2.11  13 2.12
  50  0.250  0.250  0.550-  18 2.11  15 2.11   8 2.11  16 2.11  31 2.11  14 2.12
  51  0.500  0.750  0.451-  19 2.11   6 2.11  21 2.11  22 2.11  29 2.11  23 2.13
  52  0.750  0.000  0.451-  20 2.11   5 2.11  21 2.11  22 2.11  30 2.11  24 2.12
  53  0.500  0.000  0.352-  21 2.11  19 2.11  20 2.11   4 2.11  27 2.11
  54  0.750  0.750  0.352-  22 2.11  19 2.11  20 2.11   3 2.11  28 2.11
  55  0.500  0.751  0.651-  25 2.10  10 2.11  26 2.11  33 2.12  23 2.15
  56  0.750  0.000  0.651-   9 2.11  26 2.11  34 2.11  25 2.11  24 2.15
  57  0.500  0.000  0.550-  25 2.11  24 2.11   8 2.11  23 2.11  31 2.11  21 2.12
  58  0.750  0.750  0.550-  26 2.11  24 2.11   7 2.11  32 2.11  23 2.11  22 2.12
  59  0.500  0.250  0.451-  27 2.11  21 2.11  14 2.11  29 2.11  30 2.11  31 2.13
  60  0.750  0.500  0.451-  28 2.11  22 2.11  13 2.11  29 2.11  30 2.11  32 2.13
  61  0.500  0.500  0.352-  29 2.11  19 2.11  27 2.11  28 2.11  12 2.11
  62  0.750  0.250  0.352-  30 2.11  20 2.11  27 2.11  28 2.11  11 2.11
  63  0.500  0.249  0.651-  25 2.10  18 2.11  34 2.11  33 2.12  31 2.15
  64  0.751  0.500  0.651-  17 2.10  26 2.11  34 2.11  33 2.12  32 2.15
  65  0.500  0.500  0.550-  16 2.11  23 2.11  31 2.11  32 2.11  29 2.13  33 2.14
  66  0.750  0.250  0.550-  34 2.11  24 2.11  15 2.11  32 2.11  31 2.11  30 2.12

  LATTYP: Found a simple tetragonal cell.
 ALAT       =     8.4409846542
 C/A-ratio  =     2.5270438657

  Lattice vectors:

 A1 = (   8.4409846542,   0.0000000000,   0.0000000000)
 A2 = (   0.0000000000,   8.4409846542,   0.0000000000)
 A3 = (   0.0000000000,   0.0000000000,  21.3307384906)

Analysis of symmetry for initial positions (statically):
 Subroutine PRICEL returns:
 Original cell was already a primitive cell.

 Routine SETGRP: Setting up the symmetry group for a
 simple tetragonal supercell.

 Subroutine GETGRP returns: Found  8 space group operations
 (whereof  8 operations were pure point group operations)
 out of a pool of 16 trial point group operations.

The static configuration has the point symmetry C_4v.

Analysis of symmetry for dynamics (positions and initial velocities):
 Subroutine PRICEL returns:
 Original cell was already a primitive cell.

 Routine SETGRP: Setting up the symmetry group for a
 simple tetragonal supercell.

 Subroutine GETGRP returns: Found  8 space group operations
 (whereof  8 operations were pure point group operations)
 out of a pool of 16 trial point group operations.

The dynamic configuration has the point symmetry C_4v.

 Subroutine INISYM returns: Found  8 space group operations
 (whereof  8 operations are pure point group operations),
 and found     1 'primitive' translations

                                     Primitive cell

  volume of cell :    1519.8199

  direct lattice vectors                    reciprocal lattice vectors
     8.440984654  0.000000000  0.000000000     0.118469591  0.000000000  0.000000000
     0.000000000  8.440984654  0.000000000     0.000000000  0.118469591  0.000000000
     0.000000000  0.000000000 21.330738491     0.000000000  0.000000000  0.046880702

  length of vectors
     8.440984654  8.440984654 21.330738491     0.118469591  0.118469591  0.046880702

  position of ions in fractional coordinates (direct lattice)
     0.500000000  0.500000000  0.765005874
     0.500000000  0.500000000  0.818769592
     0.000000000  0.750000000  0.351605267
     0.250000000  0.000000000  0.351605267
     0.000000000  0.000000000  0.450535089
     0.250000000  0.750000000  0.450535089
     0.000000000  0.749939268  0.550083239
     0.250060732  0.000000000  0.550083239
     0.000000000  0.000000000  0.648745309
     0.249858327  0.750141673  0.648569547
     0.000000000  0.250000000  0.351605267
     0.250000000  0.500000000  0.351605267
     0.000000000  0.500000000  0.450535089
     0.250000000  0.250000000  0.450535089
     0.000000000  0.250060732  0.550083239
     0.250378379  0.500000000  0.550219524
     0.000000000  0.500000000  0.648615280
     0.249858327  0.249858327  0.648569547
     0.500000000  0.750000000  0.351605267
[...]
      8     -45.5477      2.00000
      9     -45.4715      2.00000
     10     -45.4715      2.00000
     11     -45.4715      2.00000
     12     -45.4715      2.00000
     13     -45.4543      2.00000
     14     -45.4543      2.00000
     15     -45.4543      2.00000
     16     -45.4543      2.00000
     17     -45.4469      2.00000
     18     -45.4469      2.00000
     19     -45.4469      2.00000
     20     -45.4469      2.00000
     21     -45.4294      2.00000
     22     -45.4294      2.00000
     23     -45.4294      2.00000
     24     -45.4294      2.00000
     25     -45.3630      2.00000
     26     -45.3629      2.00000
     27     -45.3629      2.00000
     28     -45.3629      2.00000
     29     -45.3436      2.00000
     30     -45.3220      2.00000
     31     -45.3220      2.00000
     32     -45.2730      2.00000
     33     -45.2730      2.00000
     34     -45.2714      2.00000
     35     -45.2710      2.00000
     36     -45.2637      2.00000
     37     -45.2637      2.00000
     38     -45.2624      2.00000
     39     -45.2624      2.00000
     40     -45.2362      2.00000
     41     -45.2362      2.00000
     42     -45.2296      2.00000
     43     -45.2232      2.00000
     44     -45.2202      2.00000
     45     -45.2141      2.00000
     46     -45.2115      2.00000
     47     -45.1525      2.00000
     48     -45.1525      2.00000
     49     -44.9101      2.00000
     50     -44.9101      2.00000
     51     -44.9097      2.00000
     52     -44.9097      2.00000
     53     -44.8939      2.00000
     54     -44.8929      2.00000
     55     -44.8929      2.00000
     56     -44.8913      2.00000
     57     -44.8907      2.00000
     58     -44.8907      2.00000
     59     -44.8904      2.00000
     60     -44.8893      2.00000
[...]
    306       9.9653      0.00000
    307       9.9733      0.00000
    308       9.9920      0.00000
    309      10.0839      0.00000
    310      10.1356      0.00000
    311      10.3648      0.00000
    312      10.7227      0.00000
    313      10.7596      0.00000
    314      10.8175      0.00000
    315      10.9360      0.00000
    316      10.9504      0.00000
    317      11.4480      0.00000
    318      11.4672      0.00000
    319      11.6199      0.00000
    320      11.6339      0.00000

 soft charge-density along one line, spin component           1
         0         1         2         3         4         5         6         7         8         9
 total charge-density along one line

------------------------ aborting loop because EDIFF is reached ----------------------------------------

  FORCE on cell =-STRESS in cart. coord.  units (eV):
  Direction    XX          YY          ZZ          XY          YZ          ZX
  Alpha Z   907.96410   907.96410   907.96410
  Ewald  157646.51018157646.51018************     0.00000     0.00000    -0.00000
  Hartree168149.06337168149.06337************    -0.00000    -0.00000    -0.00000
  E(xc)   -1887.99651 -1887.99651 -1890.37343    -0.00000     0.00000    -0.00000
  Local  ************************335364.47260    -0.00000     0.00000    -0.00000
  n-local  -732.90477  -733.31932  -765.68836     0.00001    -0.00000     0.00000
  augment   833.27389   833.27389   822.07641     0.00000     0.00000    -0.00000
  Kinetic  7508.28615  7509.99580  7531.68603    -0.00000    -0.00000    -0.00000
  Fock    -2515.66124 -2515.74978 -2514.99104    -0.00000     0.00000     0.00000
  vdW        -8.80037    -8.80038    -6.09192     0.00000    -0.00000     0.00000
  Total     -50.21758   -50.21758   -20.43364     0.00000     0.00000     0.00000
  in kB     -52.93882   -52.93882   -21.54092     0.00000     0.00000     0.00000

 VOLUME and BASIS-vectors are now :
  energy-cutoff  :      600.00
  volume of cell :     1519.82
      direct lattice vectors                 reciprocal lattice vectors
     8.440984654  0.000000000  0.000000000     0.118469591  0.000000000  0.000000000
     0.000000000  8.440984654  0.000000000     0.000000000  0.118469591  0.000000000
     0.000000000  0.000000000 21.330738491     0.000000000  0.000000000  0.046880702

  length of vectors
     8.440984654  8.440984654 21.330738491     0.118469591  0.118469591  0.046880702

 FORCES acting on ions:
    Electron-Ion                     Ewald-Force                    Non-Local-Force
   0.121E-12 -.268E-12 -.837E+03   -.533E-14 0.155E-14 0.811E+03   0.000E+00 0.000E+00 0.259E+02
   0.477E-12 0.121E-11 -.145E+04   0.155E-14 0.000E+00 0.151E+04   0.000E+00 -.207E-23 -.532E+02
   -.618E-13 -.129E+00 0.208E+04   0.560E-13 0.129E+00 -.207E+04   0.529E-22 0.410E-04 -.677E+01
   0.129E+00 -.148E-12 0.208E+04   -.129E+00 0.671E-13 -.207E+04   -.410E-04 0.232E-22 -.677E+01
   -.659E-13 0.350E-12 0.713E+03   -.150E-10 0.150E-10 -.714E+03   -.662E-23 0.000E+00 0.450E+00
   0.473E+00 -.473E+00 0.714E+03   -.468E+00 0.468E+00 -.715E+03   -.265E-02 0.265E-02 0.473E+00
   -.550E-13 -.285E+01 -.643E+03   0.157E-11 0.283E+01 0.643E+03   -.331E-23 0.176E-01 -.110E+00
   0.285E+01 0.391E-12 -.643E+03   -.283E+01 -.151E-11 0.643E+03   -.176E-01 0.000E+00 -.110E+00
   -.475E-13 -.485E-12 -.200E+04   0.444E-12 -.416E-12 0.200E+04   0.000E+00 0.000E+00 0.572E+01
   0.181E+02 -.181E+02 -.198E+04   -.182E+02 0.182E+02 0.198E+04   0.767E-01 -.767E-01 0.580E+01
   -.505E-13 0.129E+00 0.208E+04   -.277E-12 -.129E+00 -.207E+04   0.529E-22 -.410E-04 -.677E+01
   0.124E+00 0.633E-12 0.208E+04   -.122E+00 0.131E-10 -.207E+04   -.144E-02 0.794E-22 -.677E+01
   -.494E-13 0.132E-11 0.714E+03   -.165E-10 0.000E+00 -.715E+03   0.000E+00 0.993E-23 0.413E+00
   0.473E+00 0.473E+00 0.714E+03   -.468E+00 -.468E+00 -.715E+03   -.265E-02 -.265E-02 0.473E+00
   -.437E-13 0.285E+01 -.643E+03   0.304E-11 -.283E+01 0.643E+03   0.000E+00 -.176E-01 -.110E+00
   0.413E+01 0.112E-11 -.636E+03   -.406E+01 0.178E-14 0.636E+03   -.725E-01 -.529E-22 -.224E+00
   -.142E-13 0.700E-12 -.199E+04   -.355E-13 -.995E-13 0.198E+04   -.132E-22 0.000E+00 0.573E+01
   0.181E+02 0.181E+02 -.198E+04   -.182E+02 -.182E+02 0.198E+04   0.767E-01 0.767E-01 0.580E+01
   0.913E-12 -.124E+00 0.208E+04   -.129E-10 0.122E+00 -.207E+04   0.529E-22 0.144E-02 -.677E+01
   -.129E+00 -.242E-12 0.208E+04   0.129E+00 0.471E-13 -.207E+04   0.410E-04 0.529E-22 -.677E+01
   0.817E-12 0.808E-13 0.714E+03   0.145E-11 0.150E-10 -.715E+03   0.000E+00 -.529E-22 0.413E+00
   -.473E+00 -.473E+00 0.714E+03   0.468E+00 0.468E+00 -.715E+03   0.265E-02 0.265E-02 0.473E+00
   0.836E-12 -.413E+01 -.636E+03   -.141E-11 0.406E+01 0.636E+03   0.000E+00 0.725E-01 -.224E+00
   -.285E+01 0.323E-12 -.643E+03   0.283E+01 -.156E-11 0.643E+03   0.176E-01 0.000E+00 -.110E+00
   0.944E-12 0.875E-12 -.199E+04   0.782E-13 -.355E-14 0.198E+04   -.265E-22 0.000E+00 0.573E+01
   -.181E+02 -.181E+02 -.198E+04   0.182E+02 0.182E+02 0.198E+04   -.767E-01 -.767E-01 0.580E+01
   0.912E-12 0.124E+00 0.208E+04   -.131E-10 -.122E+00 -.207E+04   0.000E+00 -.144E-02 -.677E+01
   -.124E+00 0.135E-12 0.208E+04   0.122E+00 0.131E-10 -.207E+04   0.144E-02 0.794E-22 -.677E+01
   0.847E-12 0.315E-11 0.714E+03   -.782E-13 0.355E-14 -.715E+03   0.000E+00 0.000E+00 0.541E+00
   -.473E+00 0.473E+00 0.714E+03   0.468E+00 -.468E+00 -.715E+03   0.265E-02 -.265E-02 0.473E+00
   0.822E-12 0.413E+01 -.636E+03   -.284E-13 -.406E+01 0.636E+03   0.000E+00 -.725E-01 -.224E+00
   -.413E+01 -.167E-11 -.636E+03   0.406E+01 0.000E+00 0.636E+03   0.725E-01 0.000E+00 -.224E+00
   0.949E-12 0.310E-12 -.191E+04   -.426E-13 -.391E-13 0.191E+04   0.529E-22 0.000E+00 0.389E+01
   -.181E+02 0.181E+02 -.198E+04   0.182E+02 -.182E+02 0.198E+04   -.767E-01 0.767E-01 0.580E+01
   -.690E-13 -.406E+00 0.535E+03   0.409E-13 0.400E+00 -.535E+03   0.000E+00 0.724E-02 -.102E+00
   0.406E+00 0.121E-12 0.535E+03   -.400E+00 0.391E-13 -.535E+03   -.724E-02 0.000E+00 -.102E+00
   -.535E-13 0.566E-12 0.156E+04   0.853E-11 -.844E-11 -.156E+04   0.529E-22 0.132E-22 0.303E+01
   0.941E-01 -.941E-01 0.156E+04   -.932E-01 0.932E-01 -.156E+04   -.106E-02 0.106E-02 0.303E+01
   -.922E-13 -.733E+01 -.152E+04   -.871E-12 0.727E+01 0.153E+04   0.000E+00 0.522E-01 -.445E+01
   0.733E+01 -.438E-12 -.152E+04   -.727E+01 0.881E-12 0.153E+04   -.522E-01 0.794E-22 -.445E+01
   -.599E-13 0.215E-12 -.478E+03   -.853E-13 0.639E-13 0.478E+03   0.331E-23 -.662E-23 0.256E+00
   0.257E+01 -.257E+01 -.473E+03   -.256E+01 0.256E+01 0.473E+03   -.776E-02 0.776E-02 0.316E+00
   -.631E-13 0.406E+00 0.535E+03   0.142E-13 -.400E+00 -.535E+03   0.000E+00 -.724E-02 -.102E+00
   0.378E+00 0.687E-12 0.535E+03   -.406E+00 -.764E-11 -.535E+03   0.322E-01 -.397E-22 -.121E+00
   -.476E-13 0.102E-11 0.156E+04   0.845E-11 -.796E-12 -.156E+04   0.132E-22 0.000E+00 0.303E+01
   0.941E-01 0.941E-01 0.156E+04   -.932E-01 -.932E-01 -.156E+04   -.106E-02 -.106E-02 0.303E+01
   -.904E-13 0.733E+01 -.152E+04   -.774E-12 -.727E+01 0.153E+04   0.662E-22 -.522E-01 -.445E+01
   0.236E+02 0.774E-12 -.149E+04   -.233E+02 0.810E-11 0.150E+04   -.275E+00 0.331E-23 -.439E+01
   -.651E-13 0.256E-12 -.473E+03   -.741E-11 0.711E-14 0.473E+03   -.331E-23 0.000E+00 0.273E+00
   0.257E+01 0.257E+01 -.473E+03   -.256E+01 -.256E+01 0.473E+03   -.776E-02 -.776E-02 0.316E+00
   0.318E-12 -.378E+00 0.535E+03   0.764E-11 0.406E+00 -.535E+03   0.000E+00 -.322E-01 -.121E+00
   -.406E+00 0.121E-12 0.535E+03   0.400E+00 0.142E-13 -.535E+03   0.724E-02 0.000E+00 -.102E+00
   0.392E-12 0.330E-12 0.156E+04   0.845E-12 -.846E-11 -.156E+04   0.331E-23 0.000E+00 0.303E+01
   -.941E-01 -.941E-01 0.156E+04   0.932E-01 0.932E-01 -.156E+04   0.106E-02 0.106E-02 0.303E+01
   0.362E-12 -.236E+02 -.149E+04   -.816E-11 0.233E+02 0.150E+04   0.265E-22 0.275E+00 -.439E+01
   -.733E+01 -.357E-12 -.152E+04   0.727E+01 0.924E-12 0.153E+04   0.522E-01 0.529E-22 -.445E+01
   0.329E-12 -.283E-12 -.473E+03   -.711E-14 0.738E-11 0.473E+03   -.331E-23 0.000E+00 0.273E+00
   -.257E+01 -.257E+01 -.473E+03   0.256E+01 0.256E+01 0.473E+03   0.776E-02 0.776E-02 0.316E+00
   0.311E-12 0.378E+00 0.535E+03   0.763E-11 -.406E+00 -.535E+03   -.265E-22 0.322E-01 -.121E+00
   -.378E+00 0.161E-11 0.535E+03   0.406E+00 -.769E-11 -.535E+03   -.322E-01 -.265E-22 -.121E+00
   0.374E-12 0.164E-11 0.156E+04   0.824E-12 -.838E-12 -.156E+04   0.827E-24 0.000E+00 0.303E+01
   -.941E-01 0.941E-01 0.156E+04   0.932E-01 -.932E-01 -.156E+04   0.106E-02 -.106E-02 0.303E+01
   0.359E-12 0.236E+02 -.149E+04   -.820E-11 -.233E+02 0.150E+04   0.000E+00 -.275E+00 -.439E+01
   -.236E+02 -.181E-11 -.149E+04   0.233E+02 0.819E-11 0.150E+04   0.275E+00 -.529E-22 -.439E+01
   0.303E-12 0.120E-11 -.473E+03   -.497E-13 0.426E-13 0.473E+03   0.000E+00 -.662E-23 -.157E+00
   -.257E+01 0.257E+01 -.473E+03   0.256E+01 -.256E+01 0.473E+03   0.776E-02 -.776E-02 0.316E+00
   0.264E-10 0.195E-10 0.550E+02   0.830E-13 -.684E-13 0.443E-11   -.234E-16 -.260E-16 -.449E+02

 POSITION                                       TOTAL-FORCE (eV/Angst)
      4.22049      4.22049     16.31814        -0.000000      0.000000      2.065127
      4.22049      4.22049     17.46496        -0.000000      0.000000     -2.043990
      0.00000      6.33074      7.50000        -0.000000     -0.000054      0.586890
      2.11025      0.00000      7.50000         0.000054      0.000000      0.586890
      0.00000      0.00000      9.61025        -0.000000      0.000000      0.050940
      2.11025      6.33074      9.61025         0.001642     -0.001642      0.052914
      0.00000      6.33023     11.73368        -0.000000     -0.001256      0.006582
      2.11076      0.00000     11.73368         0.001256      0.000000      0.006582
      0.00000      0.00000     13.83822        -0.000000      0.000000     -0.202378
      2.10905      6.33193     13.83447        -0.007807      0.007807     -0.214653
      0.00000      2.11025      7.50000        -0.000000      0.000054      0.586890
      2.11025      4.22049      7.50000         0.000484      0.000000      0.587110
      0.00000      4.22049      9.61025        -0.000000      0.000000      0.061299
      2.11025      2.11025      9.61025         0.001642      0.001642      0.052914
      0.00000      2.11076     11.73368        -0.000000      0.001256      0.006582
      2.11344      4.22049     11.73659        -0.003891      0.000000      0.016479
      0.00000      4.22049     13.83544        -0.000000      0.000000     -0.207118
      2.10905      2.10905     13.83447        -0.007807     -0.007807     -0.214653
      4.22049      6.33074      7.50000        -0.000000     -0.000484      0.587110
      6.33074      0.00000      7.50000        -0.000054      0.000000      0.586890
      4.22049      0.00000      9.61025        -0.000000      0.000000      0.061299
      6.33074      6.33074      9.61025        -0.001642     -0.001642      0.052914
      4.22049      6.32754     11.73659        -0.000000      0.003891      0.016479
      6.33023      0.00000     11.73368        -0.001256      0.000000      0.006582
      4.22049      0.00000     13.83544        -0.000000      0.000000     -0.207118
      6.33193      6.33193     13.83447         0.007807      0.007807     -0.214653
      4.22049      2.11025      7.50000        -0.000000      0.000484      0.587110
      6.33074      4.22049      7.50000        -0.000484      0.000000      0.587110
      4.22049      4.22049      9.61025        -0.000000      0.000000      0.064421
      6.33074      2.11025      9.61025        -0.001642      0.001642      0.052914
      4.22049      2.11344     11.73659        -0.000000     -0.003891      0.016479
      6.32754      4.22049     11.73659         0.003891      0.000000      0.016479
      4.22049      4.22049     13.87814        -0.000000      0.000000     -0.193999
      6.33193      2.10905     13.83447         0.007807     -0.007807     -0.214653
      0.00000      6.33074      9.61025        -0.000000      0.002568      0.061831
      2.11025      0.00000      9.61025        -0.002568      0.000000      0.061831
      0.00000      0.00000      7.50000        -0.000000      0.000000     -0.413337
      2.11025      6.33074      7.50000        -0.000383      0.000383     -0.413107
      0.00000      6.33258     13.88587        -0.000000     -0.000277     -0.126631
      2.10840      0.00000     13.88587         0.000277      0.000000     -0.126631
      0.00000      0.00000     11.72785        -0.000000      0.000000      0.025497
      2.10979      6.33120     11.72890         0.002271     -0.002271      0.020059
      0.00000      2.11025      9.61025        -0.000000     -0.002568      0.061831
      2.11025      4.22049      9.61025         0.010082      0.000000      0.069743
      0.00000      4.22049      7.50000        -0.000000      0.000000     -0.413375
      2.11025      2.11025      7.50000        -0.000383     -0.000383     -0.413107
      0.00000      2.10840     13.88587        -0.000000      0.000277     -0.126631
      2.10031      4.22049     13.88381        -0.007044      0.000000     -0.114293
      0.00000      4.22049     11.72684        -0.000000      0.000000      0.022147
      2.10979      2.10979     11.72890         0.002271      0.002271      0.020059
      4.22049      6.33074      9.61025        -0.000000     -0.010082      0.069743
      6.33074      0.00000      9.61025         0.002568      0.000000      0.061831
      4.22049      0.00000      7.50000        -0.000000      0.000000     -0.413375
      6.33074      6.33074      7.50000         0.000383      0.000383     -0.413107
      4.22049      6.34068     13.88381        -0.000000      0.007044     -0.114293
      6.33258      0.00000     13.88587        -0.000277      0.000000     -0.126631
      4.22049      0.00000     11.72684        -0.000000      0.000000      0.022147
      6.33120      6.33120     11.72890        -0.002271     -0.002271      0.020059
      4.22049      2.11025      9.61025        -0.000000      0.010082      0.069743
      6.33074      4.22049      9.61025        -0.010082      0.000000      0.069743
      4.22049      4.22049      7.50000        -0.000000      0.000000     -0.413820
      6.33074      2.11025      7.50000         0.000383     -0.000383     -0.413107
      4.22049      2.10031     13.88381        -0.000000     -0.007044     -0.114293
      6.34068      4.22049     13.88381         0.007044      0.000000     -0.114293
      4.22049      4.22049     11.73684        -0.000000      0.000000      0.003934
      6.33120      2.10979     11.72890        -0.002271      0.002271      0.020059
    total drift:                                0.000000      0.000000     -0.025813

  FREE ENERGIE OF THE ION-ELECTRON SYSTEM (eV)
  free  energy   TOTEN  =      -490.98065641 eV

  energy  without entropy=     -490.98065641  energy(sigma->0) =     -490.98065641