 vasp.6.3.0 20Jan22 (build Apr  1 2022 16:44:48) complex
 executed on        HPECrayEX_GCC date 2022.09.26  18:18:18

 INCAR:
   SYSTEM = MgO-rocksalt
   ISMEAR = 0
   SIGMA = 0.05
   EDIFF = 1E-6
   ALGO = ALL
   ISTART = 0
   IBRION = 2
   NSW = 1000
   ISYM = 2
   ISIF = 2
   EDIFFG = -0.01
   DIPOL = 0.5 0.5 0.5
   IDIPOL = 3
   LDIPOL = .TRUE.
   LHFCALC = .TRUE.
   GGA = PE
   IVDW = 13
   VDW_S8 = 1.2007
   VDW_A1 = 0.4009
   VDW_A2 = 5.0293
   ENCUT = 600
   PREC = Accurate
   LASPH = .TRUE.
   LREAL = .FALSE.
   ISPIN = 1
   NELM = 200
   NELMIN = 8
   NCORE = 8
   KPAR = 1
   LWAVE = .FALSE.
   LCHARG = .FALSE.

 POTCAR:    PAW_PBE Mg_pv 13Apr2007
 POTCAR:    PAW_PBE O 08Apr2002
|           W    W    AA    RRRRR   N    N  II  N    N   GGGG   !!!           |
|           W    W   A  A   R    R  NN   N  II  NN   N  G    G  !!!           |
|           W    W  A    A  R    R  N N  N  II  N N  N  G       !!!           |
|           W WW W  AAAAAA  RRRRR   N  N N  II  N  N N  G  GGG   !            |
|           WW  WW  A    A  R   R   N   NN  II  N   NN  G    G                |
|           W    W  A    A  R    R  N    N  II  N    N   GGGG   !!!           |
|     You have selected ISYM=2 for a HF type calculation. This will           |
|     symmetrize the charge density but not the exchange potential. I         |
|     suggest to use ISYM=3 instead. This uses symmetry to obtain the         |
|     orbitals at all k-points in the Brillouin zone, but does not apply      |
|     symmetry to the Hartree potential directly. The resultant charge        |
|     might have lower symmetry than the crystal but, at least, Hartree       |
|     and exchange are fully compatible.                                      |

   TITEL  = PAW_PBE Mg_pv 13Apr2007
   POMASS =   24.305; ZVAL   =    8.000    mass and valenz
   ENMAX  =  403.929; ENMIN  =  302.947 eV

   TITEL  = PAW_PBE O 08Apr2002
   POMASS =   16.000; ZVAL   =    6.000    mass and valenz
   ENMAX  =  400.000; ENMIN  =  300.000 eV

  PAW_PBE Mg_pv 13Apr2007               :
  PAW_PBE O 08Apr2002                   :

 POSCAR: Mg  O
  positions in direct lattice
  velocities in cartesian coordinates
|           W    W    AA    RRRRR   N    N  II  N    N   GGGG   !!!           |
|           W    W   A  A   R    R  NN   N  II  NN   N  G    G  !!!           |
|           W    W  A    A  R    R  N N  N  II  N N  N  G       !!!           |
|           W WW W  AAAAAA  RRRRR   N  N N  II  N  N N  G  GGG   !            |
|           WW  WW  A    A  R   R   N   NN  II  N   NN  G    G                |
|           W    W  A    A  R    R  N    N  II  N    N   GGGG   !!!           |
|     Specifying the vdW parameters                                           |
|     VDW_S8 = 1.201                                                          |
|     VDW_A1 = 0.401                                                          |
|     VDW_A2 = 5.029                                                          |
|     in the INCAR file will overwrite the defaults for pbe0. Please make     |
|     sure that is what you intended.                                         |

 ion  position               nearest neighbor table
   1  0.250  0.000  0.353-  35 2.09  36 2.09  43 2.09  52 2.09  33 2.09
   2  0.500  0.250  0.353-  35 2.09  36 2.09  44 2.09  51 2.09  34 2.09
   3  0.250  0.250  0.451-  33 2.09  34 2.09  41 2.09  50 2.09  35 2.09  39 2.10
   4  0.500  0.000  0.451-  33 2.09  34 2.09  42 2.09  49 2.09  36 2.09  40 2.10
   5  0.250  0.000  0.550-  39 2.09  40 2.09  47 2.09  56 2.09  33 2.10  37 2.12
   6  0.500  0.250  0.550-  39 2.09  40 2.09  48 2.09  55 2.09  34 2.10  38 2.12
   7  0.250  0.250  0.648-  39 2.08  38 2.09  37 2.09  45 2.09  54 2.09
   8  0.500  0.000  0.648-  40 2.08  38 2.09  37 2.09  46 2.09  53 2.09
   9  0.250  0.500  0.353-  35 2.09  43 2.09  44 2.09  60 2.09  41 2.09
  10  0.500  0.750  0.353-  36 2.09  43 2.09  44 2.09  59 2.09  42 2.09
  11  0.250  0.750  0.451-  33 2.09  41 2.09  42 2.09  58 2.09  43 2.09  47 2.10
  12  0.500  0.500  0.451-  34 2.09  41 2.09  42 2.09  57 2.09  44 2.09  48 2.10
  13  0.250  0.500  0.550-  39 2.09  47 2.09  48 2.09  64 2.09  41 2.10  45 2.12
  14  0.500  0.750  0.550-  40 2.09  47 2.09  48 2.09  63 2.09  42 2.10  46 2.12
  15  0.250  0.750  0.648-  47 2.08  45 2.09  46 2.09  37 2.09  62 2.09
  16  0.500  0.500  0.648-  48 2.08  45 2.09  46 2.09  38 2.09  61 2.09
  17  0.750  0.000  0.353-  36 2.09  51 2.09  52 2.09  59 2.09  49 2.09
  18  0.000  0.250  0.353-  35 2.09  51 2.09  52 2.09  60 2.09  50 2.09
  19  0.750  0.250  0.451-  34 2.09  49 2.09  50 2.09  57 2.09  51 2.09  55 2.10
  20  0.000  0.000  0.451-  33 2.09  49 2.09  50 2.09  58 2.09  52 2.09  56 2.10
  21  0.750  0.000  0.550-  40 2.09  55 2.09  56 2.09  63 2.09  49 2.10  53 2.12
  22  0.000  0.250  0.550-  39 2.09  55 2.09  56 2.09  64 2.09  50 2.10  54 2.12
  23  0.750  0.250  0.648-  55 2.08  53 2.09  54 2.09  38 2.09  61 2.09
  24  0.000  0.000  0.648-  56 2.08  53 2.09  54 2.09  37 2.09  62 2.09
  25  0.750  0.500  0.353-  44 2.09  51 2.09  59 2.09  60 2.09  57 2.09
  26  0.000  0.750  0.353-  43 2.09  52 2.09  59 2.09  60 2.09  58 2.09
  27  0.750  0.750  0.451-  42 2.09  49 2.09  57 2.09  58 2.09  59 2.09  63 2.10
  28  0.000  0.500  0.451-  41 2.09  50 2.09  57 2.09  58 2.09  60 2.09  64 2.10
  29  0.750  0.500  0.550-  48 2.09  55 2.09  63 2.09  64 2.09  57 2.10  61 2.12
  30  0.000  0.750  0.550-  47 2.09  56 2.09  63 2.09  64 2.09  58 2.10  62 2.12
  31  0.750  0.750  0.648-  63 2.08  53 2.09  61 2.09  62 2.09  46 2.09
  32  0.000  0.500  0.648-  64 2.08  54 2.09  61 2.09  62 2.09  45 2.09
  33  0.250  0.000  0.451-   3 2.09   4 2.09  11 2.09  20 2.09   1 2.09   5 2.10
  34  0.500  0.250  0.451-   3 2.09   4 2.09  12 2.09  19 2.09   2 2.09   6 2.10
  35  0.250  0.250  0.353-   1 2.09   2 2.09   9 2.09  18 2.09   3 2.09
  36  0.500  0.000  0.353-   1 2.09   2 2.09  10 2.09  17 2.09   4 2.09
  37  0.250  0.000  0.650-   7 2.09   8 2.09  15 2.09  24 2.09   5 2.12
  38  0.500  0.250  0.650-   7 2.09   8 2.09  16 2.09  23 2.09   6 2.12
  39  0.250  0.250  0.550-   7 2.08   6 2.09   5 2.09  13 2.09  22 2.09   3 2.10
  40  0.500  0.000  0.550-   8 2.08   6 2.09   5 2.09  14 2.09  21 2.09   4 2.10
  41  0.250  0.500  0.451-   3 2.09  11 2.09  12 2.09  28 2.09   9 2.09  13 2.10
  42  0.500  0.750  0.451-   4 2.09  11 2.09  12 2.09  27 2.09  10 2.09  14 2.10
  43  0.250  0.750  0.353-   1 2.09   9 2.09  10 2.09  26 2.09  11 2.09
  44  0.500  0.500  0.353-   2 2.09   9 2.09  10 2.09  25 2.09  12 2.09
  45  0.250  0.500  0.650-   7 2.09  15 2.09  16 2.09  32 2.09  13 2.12
  46  0.500  0.750  0.650-   8 2.09  15 2.09  16 2.09  31 2.09  14 2.12
  47  0.250  0.750  0.550-  15 2.08  13 2.09  14 2.09   5 2.09  30 2.09  11 2.10
  48  0.500  0.500  0.550-  16 2.08  13 2.09  14 2.09   6 2.09  29 2.09  12 2.10
  49  0.750  0.000  0.451-   4 2.09  19 2.09  20 2.09  27 2.09  17 2.09  21 2.10
  50  0.000  0.250  0.451-   3 2.09  19 2.09  20 2.09  28 2.09  18 2.09  22 2.10
  51  0.750  0.250  0.353-   2 2.09  17 2.09  18 2.09  25 2.09  19 2.09
  52  0.000  0.000  0.353-   1 2.09  17 2.09  18 2.09  26 2.09  20 2.09
  53  0.750  0.000  0.650-   8 2.09  23 2.09  24 2.09  31 2.09  21 2.12
  54  0.000  0.250  0.650-   7 2.09  23 2.09  24 2.09  32 2.09  22 2.12
  55  0.750  0.250  0.550-  23 2.08  21 2.09  22 2.09   6 2.09  29 2.09  19 2.10
  56  0.000  0.000  0.550-  24 2.08  21 2.09  22 2.09   5 2.09  30 2.09  20 2.10
  57  0.750  0.500  0.451-  12 2.09  19 2.09  27 2.09  28 2.09  25 2.09  29 2.10
  58  0.000  0.750  0.451-  11 2.09  20 2.09  27 2.09  28 2.09  26 2.09  30 2.10
  59  0.750  0.750  0.353-  10 2.09  17 2.09  25 2.09  26 2.09  27 2.09
  60  0.000  0.500  0.353-   9 2.09  18 2.09  25 2.09  26 2.09  28 2.09
  61  0.750  0.500  0.650-  16 2.09  23 2.09  31 2.09  32 2.09  29 2.12
  62  0.000  0.750  0.650-  15 2.09  24 2.09  31 2.09  32 2.09  30 2.12
  63  0.750  0.750  0.550-  31 2.08  21 2.09  29 2.09  30 2.09  14 2.09  27 2.10
  64  0.000  0.500  0.550-  32 2.08  22 2.09  29 2.09  30 2.09  13 2.09  28 2.10

  LATTYP: Found a simple tetragonal cell.
 ALAT       =     8.3491118266
 C/A-ratio  =     2.5465982863

  Lattice vectors:

 A1 = (   8.3491118266,   0.0000000000,   0.0000000000)
 A2 = (   0.0000000000,   8.3491118266,   0.0000000000)
 A3 = (   0.0000000000,   0.0000000000,  21.2618338699)

Analysis of symmetry for initial positions (statically):
 Subroutine PRICEL returns following result:

[...]

   8 primitive cells build up your supercell.

 Routine SETGRP: Setting up the symmetry group for a
 simple tetragonal supercell.

 Subroutine GETGRP returns: Found  8 space group operations
 (whereof  8 operations were pure point group operations)
 out of a pool of 16 trial point group operations.

The static configuration has the point symmetry C_4v.

Analysis of symmetry for dynamics (positions and initial velocities):
 Subroutine PRICEL returns following result:

[...]

The dynamic configuration has the point symmetry C_4v.

Analysis of constrained symmetry for selective dynamics:
 Subroutine PRICEL returns following result:

  LATTYP: Found a simple tetragonal cell.
 ALAT       =     2.9518567947
 C/A-ratio  =     7.2028676689

  Lattice vectors:

 A1 = (   2.0872779566,  -2.0872779566,   0.0000000000)
 A2 = (   2.0872779566,   2.0872779566,   0.0000000000)
 A3 = (   0.0000000000,   0.0000000000,  21.2618338699)

   8 primitive cells build up your supercell.

 Routine SETGRP: Setting up the symmetry group for a
 simple tetragonal supercell.

 Subroutine GETGRP returns: Found  8 space group operations
 (whereof  8 operations were pure point group operations)
 out of a pool of 16 trial point group operations.

The constrained configuration has the point symmetry C_4v.

 Subroutine INISYM returns: Found  8 space group operations
 (whereof  8 operations are pure point group operations),
 and found     8 'primitive' translations

                                     Primitive cell

  volume of cell :     185.2641

  direct lattice vectors                    reciprocal lattice vectors
     2.087277957 -2.087277957  0.000000000     0.239546438 -0.239546438  0.000000000
     2.087277957  2.087277957  0.000000000     0.239546438  0.239546438 -0.000000000
     0.000000000  0.000000000 21.261833870    -0.000000000  0.000000000  0.047032632

  length of vectors
     2.951856795  2.951856795 21.261833870     0.338769822  0.338769822  0.047032632

  position of ions in fractional coordinates (direct lattice)
     0.500000000  0.500000000  0.352744737
     0.000000000  0.000000000  0.450914912
     0.500000000  0.500000000  0.549842757
     0.000000000  0.000000000  0.647554300
     0.500000000  0.500000000  0.450914912
     0.000000000  0.000000000  0.352744737
     0.500000000  0.500000000  0.649750317
     0.000000000  0.000000000  0.549515246

  ion indices of the primitive-cell ions
   primitive index   ion index
                 1           1
                 2           3
                 3           5
                 4           7
                 5          33
                 6          35
                 7          37
                 8          39

[...]
     17     -45.3849      2.00000
     18     -45.3849      2.00000
     19     -45.3849      2.00000
     20     -45.3849      2.00000
     21     -45.3654      2.00000
     22     -45.3654      2.00000
     23     -45.3654      2.00000
     24     -45.3654      2.00000
     25     -45.2736      2.00000
     26     -45.2736      2.00000
     27     -45.2736      2.00000
     28     -45.2736      2.00000
     29     -45.2691      2.00000
     30     -45.2691      2.00000
     31     -45.2691      2.00000
     32     -45.2691      2.00000
     33     -45.1964      2.00000
     34     -45.1964      2.00000
     35     -45.1964      2.00000
     36     -45.1964      2.00000
     37     -45.1769      2.00000
     38     -45.1769      2.00000
     39     -45.1769      2.00000
     40     -45.1769      2.00000
     41     -45.1678      2.00000
     42     -45.1678      2.00000
     43     -45.1678      2.00000
     44     -45.1678      2.00000
     45     -45.1482      2.00000
     46     -45.1482      2.00000
     47     -45.1482      2.00000
     48     -45.1482      2.00000
     49     -44.8652      2.00000
     50     -44.8652      2.00000
     51     -44.8652      2.00000
     52     -44.8652      2.00000
     53     -44.8466      2.00000
     54     -44.8466      2.00000
     55     -44.8466      2.00000
     56     -44.8466      2.00000
     57     -44.8410      2.00000
     58     -44.8410      2.00000
     59     -44.8410      2.00000
     60     -44.8410      2.00000
[...]
    498      18.7859      0.00000
    499      18.8098      0.00000
    500      18.8142      0.00000
    501      18.8239      0.00000
    502      18.8245      0.00000
    503      18.8250      0.00000
    504      18.9144      0.00000
    505      19.9282      0.00000
    506      19.9395      0.00000
    507      19.9411      0.00000
    508      19.9509      0.00000
    509      20.3302      0.00000
    510      20.3392      0.00000
    511      20.3441      0.00000
    512      20.3455      0.00000

 soft charge-density along one line, spin component           1
         0         1         2         3         4         5         6         7         8         9
 total charge-density along one line

------------------------ aborting loop because EDIFF is reached ----------------------------------------

  FORCE on cell =-STRESS in cart. coord.  units (eV):
  Direction    XX          YY          ZZ          XY          YZ          ZX
  Alpha Z   897.52708   897.52708   897.52708
  Ewald  165972.15653165972.15653************    -0.00000    -0.00000    -0.00000
  Hartree176061.89849176061.89849************    -0.00000    -0.00000    -0.00000
  E(xc)   -1857.96318 -1857.96318 -1861.12684     0.00000    -0.00000    -0.00000
  Local  ************************352596.78100     0.00000    -0.00000     0.00000
  n-local  -715.10392  -715.41521  -740.03944    -0.00001     0.00001    -0.00000
  augment   827.14372   827.14372   816.06005    -0.00000     0.00000     0.00000
  Kinetic  7337.00924  7338.69212  7375.44505     0.00000    -0.00000     0.00000
  Fock    -2504.26971 -2504.43565 -2500.29291     0.00000    -0.00000     0.00000
  vdW        -9.09048    -9.09049    -6.15175     0.00000    -0.00000     0.00000
  Total     -30.46616   -30.46616    -2.76915     0.00000     0.00000     0.00000
  in kB     -32.93419   -32.93419    -2.99347     0.00000     0.00000     0.00000

 VOLUME and BASIS-vectors are now :
  energy-cutoff  :      600.00
  volume of cell :     1482.11
      direct lattice vectors                 reciprocal lattice vectors
     8.349111827  0.000000000  0.000000000     0.119773219  0.000000000  0.000000000
     0.000000000  8.349111827  0.000000000     0.000000000  0.119773219  0.000000000
     0.000000000  0.000000000 21.261833870     0.000000000  0.000000000  0.047032632

  length of vectors
     8.349111827  8.349111827 21.261833870     0.119773219  0.119773219  0.047032632

 FORCES acting on ions:
    Electron-Ion                     Ewald-Force                    Non-Local-Force
   0.157E-12 -.274E-12 0.212E+04   -.145E-12 -.391E-13 -.212E+04   0.341E-23 -.931E-24 -.683E+01
   0.623E-12 -.377E-11 0.212E+04   -.123E-12 -.426E-13 -.212E+04   -.496E-23 -.300E-23 -.683E+01
   0.219E-12 0.749E-13 0.702E+03   -.174E-12 -.178E-13 -.702E+03   0.662E-23 0.993E-23 0.470E+00
   0.551E-12 -.408E-13 0.702E+03   -.132E-12 0.334E-13 -.702E+03   0.331E-23 -.331E-23 0.470E+00
   0.225E-12 -.150E-12 -.709E+03   -.107E-13 -.255E-13 0.709E+03   0.000E+00 0.103E-22 -.217E+00
   0.550E-12 -.254E-11 -.709E+03   -.437E-13 -.249E-13 0.709E+03   0.248E-22 -.132E-22 -.217E+00
   0.153E-12 0.308E-12 -.211E+04   0.355E-13 0.213E-13 0.210E+04   0.000E+00 -.993E-23 0.577E+01
   0.628E-12 0.851E-13 -.211E+04   0.893E-13 0.311E-14 0.210E+04   0.910E-23 -.827E-23 0.577E+01
   0.140E-12 0.301E-12 0.212E+04   -.711E-13 0.106E-13 -.212E+04   -.248E-23 0.346E-23 -.683E+01
   0.623E-12 0.441E-11 0.212E+04   -.822E-13 0.129E-13 -.212E+04   0.103E-23 0.750E-24 -.683E+01
   0.233E-12 0.107E-11 0.702E+03   -.139E-12 -.284E-13 -.702E+03   0.174E-22 -.662E-23 0.470E+00
   0.568E-12 0.599E-12 0.702E+03   -.196E-12 -.143E-13 -.702E+03   -.232E-22 -.165E-22 0.470E+00
   0.223E-12 0.490E-12 -.709E+03   0.284E-13 0.329E-14 0.709E+03   0.331E-23 -.579E-23 -.217E+00
   0.548E-12 0.177E-11 -.709E+03   0.876E-13 0.355E-14 0.709E+03   0.298E-22 0.132E-22 -.217E+00
   0.164E-12 0.155E-11 -.211E+04   0.462E-13 -.782E-13 0.210E+04   -.331E-23 -.496E-23 0.577E+01
   0.635E-12 -.511E-13 -.211E+04   0.163E-12 0.249E-13 0.210E+04   0.132E-22 -.662E-23 0.577E+01
   0.881E-12 -.250E-12 0.212E+04   -.360E-13 -.103E-13 -.212E+04   -.931E-24 -.124E-23 -.683E+01
   -.358E-13 -.238E-13 0.212E+04   -.294E-13 -.160E-13 -.212E+04   -.724E-24 -.248E-23 -.683E+01
   0.871E-12 -.384E-11 0.702E+03   -.135E-12 0.213E-13 -.702E+03   0.993E-23 0.000E+00 0.470E+00
   -.171E-13 -.204E-13 0.702E+03   0.377E-14 0.328E-13 -.702E+03   -.246E-22 -.165E-23 0.470E+00
   0.826E-12 -.116E-12 -.709E+03   0.657E-13 -.290E-13 0.709E+03   0.422E-22 0.256E-22 -.217E+00
   -.390E-13 0.272E-13 -.709E+03   0.148E-12 0.568E-13 0.709E+03   -.993E-23 -.199E-22 -.217E+00
   0.907E-12 0.282E-11 -.211E+04   0.959E-13 0.178E-13 0.210E+04   0.182E-22 -.331E-23 0.577E+01
   -.129E-13 0.107E-12 -.211E+04   0.189E-12 0.919E-14 0.210E+04   -.993E-23 0.199E-22 0.577E+01
   0.895E-12 0.606E-11 0.212E+04   -.462E-13 0.115E-13 -.212E+04   -.397E-23 0.310E-24 -.683E+01
   -.308E-13 0.815E-12 0.212E+04   0.719E-13 0.160E-13 -.212E+04   0.827E-24 -.827E-24 -.683E+01
   0.853E-12 -.658E-11 0.702E+03   -.959E-13 -.284E-13 -.702E+03   -.827E-23 0.132E-22 0.470E+00
   -.315E-13 0.691E-12 0.702E+03   0.179E-13 0.214E-13 -.702E+03   0.827E-23 -.910E-23 0.470E+00
   0.826E-12 -.187E-11 -.709E+03   0.199E-12 0.566E-13 0.709E+03   0.232E-22 0.662E-23 -.217E+00
   -.346E-13 0.637E-12 -.709E+03   0.142E-12 0.000E+00 0.709E+03   0.143E-22 0.265E-22 -.217E+00
   0.909E-12 -.739E-12 -.211E+04   0.171E-12 -.426E-13 0.210E+04   -.124E-23 0.331E-23 0.577E+01
   -.152E-13 0.674E-12 -.211E+04   0.192E-12 0.212E-13 0.210E+04   0.165E-23 0.000E+00 0.577E+01
   0.113E-12 0.153E-12 0.526E+03   0.364E-13 0.302E-13 -.526E+03   -.703E-23 -.300E-23 -.111E+00
   0.278E-12 0.994E-12 0.526E+03   0.101E-12 -.622E-14 -.526E+03   -.693E-23 0.827E-24 -.111E+00
   0.497E-13 0.123E-12 0.159E+04   0.688E-13 -.200E-13 -.160E+04   -.248E-23 -.827E-24 0.300E+01
   0.311E-12 -.102E-13 0.159E+04   0.573E-13 0.329E-13 -.160E+04   0.248E-23 -.124E-23 0.300E+01
   0.766E-13 -.749E-13 -.160E+04   -.152E-12 -.825E-14 0.161E+04   0.207E-23 -.827E-24 -.452E+01
   0.344E-12 -.217E-11 -.160E+04   -.784E-13 0.187E-13 0.161E+04   -.538E-23 0.579E-23 -.452E+01
   0.100E-12 0.116E-12 -.526E+03   -.142E-13 0.213E-13 0.525E+03   0.207E-23 -.331E-23 0.278E+00
   0.248E-12 -.885E-13 -.526E+03   -.141E-13 0.351E-13 0.525E+03   -.517E-24 0.827E-24 0.278E+00
   0.112E-12 0.582E-12 0.526E+03   0.782E-13 -.798E-14 -.526E+03   -.982E-23 0.579E-23 -.111E+00
   0.261E-12 -.674E-12 0.526E+03   0.282E-13 0.293E-13 -.526E+03   -.414E-23 -.145E-23 -.111E+00
   0.550E-13 0.504E-12 0.159E+04   0.862E-13 0.329E-13 -.160E+04   0.000E+00 -.393E-23 0.300E+01
   0.312E-12 0.507E-12 0.159E+04   0.563E-13 -.129E-13 -.160E+04   -.341E-23 -.703E-23 0.300E+01
   0.843E-13 -.732E-12 -.160E+04   -.853E-13 -.107E-13 0.161E+04   -.662E-23 0.000E+00 -.452E+01
   0.352E-12 0.538E-11 -.160E+04   -.141E-12 -.888E-14 0.161E+04   -.207E-23 0.827E-24 -.452E+01
   0.102E-12 0.114E-11 -.526E+03   -.426E-13 0.213E-13 0.525E+03   -.310E-24 0.207E-23 0.278E+00
   0.265E-12 0.227E-11 -.526E+03   0.218E-13 0.421E-16 0.525E+03   0.248E-23 0.207E-23 0.278E+00
   0.419E-12 0.143E-12 0.526E+03   0.426E-13 0.673E-15 -.526E+03   -.662E-23 -.827E-24 -.111E+00
   -.253E-13 0.446E-12 0.526E+03   0.356E-13 -.284E-13 -.526E+03   -.132E-22 -.352E-23 -.111E+00
   0.454E-12 -.163E-11 0.159E+04   0.302E-13 -.169E-13 -.160E+04   -.993E-23 -.993E-23 0.300E+01
   -.323E-14 -.323E-13 0.159E+04   0.678E-13 0.288E-13 -.160E+04   0.108E-22 0.827E-24 0.300E+01
   0.383E-12 -.109E-12 -.160E+04   -.764E-13 -.135E-13 0.161E+04   0.993E-23 0.724E-24 -.452E+01
   -.414E-13 0.238E-13 -.160E+04   -.154E-12 0.142E-13 0.161E+04   -.496E-23 -.124E-23 -.452E+01
   0.431E-12 -.225E-11 -.526E+03   -.568E-13 0.213E-13 0.525E+03   -.165E-23 -.455E-23 0.278E+00
   -.165E-13 -.100E-12 -.526E+03   -.145E-13 0.353E-13 0.525E+03   -.165E-23 0.207E-23 0.278E+00
   0.428E-12 0.877E-11 0.526E+03   0.568E-13 -.283E-13 -.526E+03   -.496E-23 -.290E-23 -.111E+00
   -.119E-13 0.700E-12 0.526E+03   0.499E-13 0.000E+00 -.526E+03   -.207E-23 -.455E-23 -.111E+00
   0.453E-12 -.878E-11 0.159E+04   0.258E-13 0.160E-13 -.160E+04   -.455E-23 0.207E-24 0.300E+01
   0.130E-14 0.422E-12 0.159E+04   0.871E-13 -.164E-13 -.160E+04   -.290E-23 0.414E-24 0.300E+01
   0.380E-12 0.513E-11 -.160E+04   -.142E-12 -.142E-13 0.161E+04   -.264E-23 -.827E-24 -.452E+01
   -.579E-13 0.586E-12 -.160E+04   -.849E-13 -.142E-13 0.161E+04   0.414E-24 -.248E-23 -.452E+01
   0.421E-12 -.510E-11 -.526E+03   0.426E-13 0.284E-13 0.525E+03   0.000E+00 -.331E-23 0.278E+00
   -.291E-13 0.987E-13 -.526E+03   -.286E-13 0.285E-13 0.525E+03   -.662E-23 0.124E-23 0.278E+00
   0.195E-10 0.867E-11 0.203E+02   0.175E-12 0.169E-12 0.159E-10   0.567E-22 -.166E-22 -.172E+02

 POSITION                                       TOTAL-FORCE (eV/Angst)
      2.08728      0.00000      7.50000         0.000000     -0.000000      0.427469
      4.17456      2.08728      7.50000         0.000000      0.000000      0.427469
      2.08728      2.08728      9.58728         0.000000     -0.000000      0.071358
      4.17456      0.00000      9.58728        -0.000000      0.000000      0.071358
      2.08728     -0.00000     11.69029         0.000000      0.000000      0.002198
      4.17456      2.08728     11.69029         0.000000     -0.000000      0.002198
      2.08728      2.08728     13.76767         0.000000      0.000000     -0.002217
      4.17456      0.00000     13.76767         0.000000     -0.000000     -0.002217
      2.08728      4.17456      7.50000         0.000000     -0.000000      0.427469
      4.17456      6.26183      7.50000         0.000000     -0.000000      0.427469
      2.08728      6.26183      9.58728         0.000000     -0.000000      0.071358
      4.17456      4.17456      9.58728        -0.000000     -0.000000      0.071358
      2.08728      4.17456     11.69029         0.000000     -0.000000      0.002198
      4.17456      6.26183     11.69029         0.000000     -0.000000      0.002198
      2.08728      6.26183     13.76767         0.000000     -0.000000     -0.002217
      4.17456      4.17456     13.76767         0.000000      0.000000     -0.002217
      6.26183      0.00000      7.50000        -0.000000      0.000000      0.427469
      0.00000      2.08728      7.50000        -0.000000      0.000000      0.427469
      6.26183      2.08728      9.58728        -0.000000      0.000000      0.071358
      0.00000      0.00000      9.58728         0.000000      0.000000      0.071358
      6.26183      0.00000     11.69029         0.000000      0.000000      0.002198
     -0.00000      2.08728     11.69029         0.000000     -0.000000      0.002198
      6.26183      2.08728     13.76767         0.000000     -0.000000     -0.002217
      0.00000     -0.00000     13.76767         0.000000      0.000000     -0.002217
      6.26183      4.17456      7.50000         0.000000     -0.000000      0.427469
      0.00000      6.26183      7.50000         0.000000      0.000000      0.427469
      6.26183      6.26183      9.58728         0.000000      0.000000      0.071358
      0.00000      4.17456      9.58728         0.000000      0.000000      0.071358
      6.26183      4.17456     11.69029        -0.000000      0.000000      0.002198
      0.00000      6.26183     11.69029         0.000000     -0.000000      0.002198
      6.26183      6.26183     13.76767         0.000000     -0.000000     -0.002217
     -0.00000      4.17456     13.76767        -0.000000      0.000000     -0.002217
      2.08728      0.00000      9.58728        -0.000000      0.000000      0.079653
      4.17456      2.08728      9.58728        -0.000000      0.000000      0.079653
      2.08728      2.08728      7.50000        -0.000000      0.000000     -0.564719
      4.17456      0.00000      7.50000        -0.000000     -0.000000     -0.564719
      2.08728      0.00000     13.81476        -0.000000      0.000000     -0.007094
      4.17456      2.08728     13.81476        -0.000000     -0.000000     -0.007094
      2.08728      2.08728     11.68405         0.000000     -0.000000     -0.006647
      4.17456      0.00000     11.68405         0.000000      0.000000     -0.006647
      2.08728      4.17456      9.58728        -0.000000     -0.000000      0.079653
      4.17456      6.26183      9.58728        -0.000000     -0.000000      0.079653
      2.08728      6.26183      7.50000        -0.000000     -0.000000     -0.564719
      4.17456      4.17456      7.50000        -0.000000      0.000000     -0.564719
      2.08728      4.17456     13.81476        -0.000000      0.000000     -0.007094
      4.17456      6.26183     13.81476        -0.000000      0.000000     -0.007094
      2.08728      6.26183     11.68405         0.000000     -0.000000     -0.006647
      4.17456      4.17456     11.68405         0.000000      0.000000     -0.006647
      6.26183      0.00000      9.58728         0.000000      0.000000      0.079653
      0.00000      2.08728      9.58728         0.000000      0.000000      0.079653
      6.26183      2.08728      7.50000        -0.000000     -0.000000     -0.564719
      0.00000      0.00000      7.50000        -0.000000     -0.000000     -0.564719
      6.26183      0.00000     13.81476        -0.000000     -0.000000     -0.007094
      0.00000      2.08728     13.81476        -0.000000     -0.000000     -0.007094
      6.26183      2.08728     11.68405        -0.000000     -0.000000     -0.006647
     -0.00000      0.00000     11.68405         0.000000     -0.000000     -0.006647
      6.26183      4.17456      9.58728         0.000000     -0.000000      0.079653
      0.00000      6.26183      9.58728         0.000000      0.000000      0.079653
      6.26183      6.26183      7.50000        -0.000000     -0.000000     -0.564719
      0.00000      4.17456      7.50000        -0.000000      0.000000     -0.564719
      6.26183      4.17456     13.81476        -0.000000      0.000000     -0.007094
      0.00000      6.26183     13.81476        -0.000000      0.000000     -0.007094
      6.26183      6.26183     11.68405         0.000000     -0.000000     -0.006647
      0.00000      4.17456     11.68405         0.000000      0.000000     -0.006647
    total drift:                                0.000000      0.000000      0.003929

  FREE ENERGIE OF THE ION-ELECTRON SYSTEM (eV)
  free  energy   TOTEN  =      -472.32144076 eV

  energy  without entropy=     -472.32144076  energy(sigma->0) =     -472.32144076

 d Force = 0.4197171E-04[-0.870E-05, 0.926E-04]  d Energy = 0.4440021E-04-0.243E-05
 d Force =-0.1116238E+02[-0.112E+02,-0.112E+02]  d Ewald  =-0.1116238E+02-0.629E-07

 Steepest descent step on ions:
 trial-energy change:   -0.000044  1 .order   -0.000042   -0.000093    0.000009
  (g-gl).g = 0.926E-04      g.g   = 0.926E-04  gl.gl    = 0.000E+00
 g(Force)  = 0.926E-04   g(Stress)= 0.000E+00 ortho     = 0.000E+00
 gamma     =   0.00000
 trial     =   1.00000
 opt step  =   0.91416  (harmonic =   0.91416) maximal distance =0.00031883
 next E    =  -472.321439   (d E  =  -0.00004)

 reached required accuracy - stopping structural energy minimisation