     Program PWSCF v.7.0 starts on 12Jun2023 at 11:52:20

     R & G space division:  proc/nbgrp/npool/nimage =      76

     Reading input from ./pw.d

     Current dimensions of program PWSCF are:
     Max number of different atomic species (ntypx) = 10
     Max number of k-points (npk) =  40000
     Max angular momentum in pseudopotentials (lmaxx) =  4
     Message from routine scan_end:
     No INFO block end statement, possibly corrupted file
     Message from routine scan_end:
     No INFO block end statement, possibly corrupted file
     Message from routine scan_end:
     No INFO block end statement, possibly corrupted file

     IMPORTANT: XC functional enforced from input :
     Exchange-correlation= LDA
                           (   1   1   0   0   0   0   0)
     Any further DFT definition will be discarded
     Please, verify this is what you really want

     Using Slab Decomposition

     bravais-lattice index     =            0
     lattice parameter (alat)  =      15.9511  a.u.
     unit-cell volume          =   16812.3552 (a.u.)^3
     number of atoms/cell      =           66
     number of atomic types    =            3
     number of electrons       =       266.00
     number of Kohn-Sham states=          133
     kinetic-energy cutoff     =     600.0000  Ry
     charge density cutoff     =    2400.0000  Ry
     scf convergence threshold =      1.0E-07
     mixing beta               =       0.7000
     number of iterations used =            8  local-TF  mixing
     Exchange-correlation= LDA
                           (   1   1   0   0   0   0   0)

     celldm(1)=  15.951149  celldm(2)=   0.000000  celldm(3)=   0.000000
     celldm(4)=   0.000000  celldm(5)=   0.000000  celldm(6)=   0.000000

     crystal axes: (cart. coord. in units of alat)
               a(1) = (   1.000000   0.000000   0.000000 )
               a(2) = (   0.000000   1.000000   0.000000 )
               a(3) = (   0.000000   0.000000   4.142406 )

     reciprocal axes: (cart. coord. in units 2 pi/alat)
               b(1) = (  1.000000  0.000000  0.000000 )
               b(2) = (  0.000000  1.000000  0.000000 )
               b(3) = (  0.000000  0.000000  0.241406 )

     PseudoPot. # 1 for C  read from file:
     ./C.ccECP.upf
     MD5 check sum: 9ad03c3cf6429d54972c076c8f6c2b50
     Pseudo is Norm-conserving, Zval =  4.0
     Generated by new atomic code, or converted to UPF format
     Using radial grid of 1122 points,  1 beta functions with:
                l(1) =   0

     PseudoPot. # 2 for O  read from file:
     ./O.ccECP.upf
     MD5 check sum: 3b487a201d7d08f9fabe6de95afac770
     Pseudo is Norm-conserving, Zval =  6.0
     Generated by new atomic code, or converted to UPF format
     Using radial grid of 1130 points,  1 beta functions with:
                l(1) =   0

     PseudoPot. # 3 for Mg read from file:
     ./Mg.ccECP.upf
     MD5 check sum: 940bc2312e27321e0049b8395045c19b
     Pseudo is Norm-conserving, Zval =  2.0
     Generated by new atomic code, or converted to UPF format
     Using radial grid of 1140 points,  2 beta functions with:
                l(1) =   0
                l(2) =   2

     atomic species   valence    mass     pseudopotential
        C              4.00     6.00000     C ( 1.00)
        O              6.00     8.00000     O ( 1.00)
        Mg             2.00    12.00000     Mg( 1.00)

     No symmetry found

                                    s                        frac. trans.

      isym =  1     identity

 cryst.   s( 1) = (     1          0          0      )
                  (     0          1          0      )
                  (     0          0          1      )

 cart.    s( 1) = (  1.0000000  0.0000000  0.0000000 )
                  (  0.0000000  1.0000000  0.0000000 )
                  (  0.0000000  0.0000000  1.0000000 )

   Cartesian axes

     site n.     atom                  positions (alat units)
         1           C   tau(   1) = (   0.5000000   0.5000000   2.5256725  )
         2           O   tau(   2) = (   0.5000000   0.5000000   2.6615357  )
         3           Mg  tau(   3) = (   0.0000000   0.7500000   1.4808699  )
         4           Mg  tau(   4) = (   0.2500000   0.0000000   1.4808699  )
         5           Mg  tau(   5) = (   0.0000000   0.0000000   1.7308699  )
         6           Mg  tau(   6) = (   0.2500000   0.7500000   1.7308699  )
         7           Mg  tau(   7) = (   0.0000000   0.7499393   1.9824324  )
         8           Mg  tau(   8) = (   0.2500607   0.0000000   1.9824324  )
         9           Mg  tau(   9) = (   0.0000000   0.0000000   2.2317558  )
        10           Mg  tau(  10) = (   0.2498583   0.7501417   2.2313117  )
        11           Mg  tau(  11) = (   0.0000000   0.2500000   1.4808699  )
        12           Mg  tau(  12) = (   0.2500000   0.5000000   1.4808699  )
        13           Mg  tau(  13) = (   0.0000000   0.5000000   1.7308699  )
        14           Mg  tau(  14) = (   0.2500000   0.2500000   1.7308699  )
        15           Mg  tau(  15) = (   0.0000000   0.2500607   1.9824324  )
        16           Mg  tau(  16) = (   0.2503784   0.5000000   1.9827768  )
        17           Mg  tau(  17) = (   0.0000000   0.5000000   2.2314272  )
        18           Mg  tau(  18) = (   0.2498583   0.2498583   2.2313117  )
        19           Mg  tau(  19) = (   0.5000000   0.7500000   1.4808699  )
        20           Mg  tau(  20) = (   0.7500000   0.0000000   1.4808699  )
        21           Mg  tau(  21) = (   0.5000000   0.0000000   1.7308699  )
        22           Mg  tau(  22) = (   0.7500000   0.7500000   1.7308699  )
        23           Mg  tau(  23) = (   0.5000000   0.7496216   1.9827768  )
        24           Mg  tau(  24) = (   0.7499393   0.0000000   1.9824324  )
        25           Mg  tau(  25) = (   0.5000000   0.0000000   2.2314272  )
        26           Mg  tau(  26) = (   0.7501417   0.7501417   2.2313117  )
        27           Mg  tau(  27) = (   0.5000000   0.2500000   1.4808699  )
        28           Mg  tau(  28) = (   0.7500000   0.5000000   1.4808699  )
        29           Mg  tau(  29) = (   0.5000000   0.5000000   1.7308699  )
        30           Mg  tau(  30) = (   0.7500000   0.2500000   1.7308699  )
        31           Mg  tau(  31) = (   0.5000000   0.2503784   1.9827768  )
        32           Mg  tau(  32) = (   0.7496216   0.5000000   1.9827768  )
        33           Mg  tau(  33) = (   0.5000000   0.5000000   2.2364856  )
        34           Mg  tau(  34) = (   0.7501417   0.2498583   2.2313117  )
        35           O   tau(  35) = (   0.0000000   0.7500000   1.7308699  )
        36           O   tau(  36) = (   0.2500000   0.0000000   1.7308699  )
        37           O   tau(  37) = (   0.0000000   0.0000000   1.4808699  )
        38           O   tau(  38) = (   0.2500000   0.7500000   1.4808699  )
        39           O   tau(  39) = (   0.0000000   0.7502185   2.2374011  )
        40           O   tau(  40) = (   0.2497815   0.0000000   2.2374011  )
        41           O   tau(  41) = (   0.0000000   0.0000000   1.9817417  )
        42           O   tau(  42) = (   0.2499458   0.7500542   1.9818661  )
        43           O   tau(  43) = (   0.0000000   0.2500000   1.7308699  )
        44           O   tau(  44) = (   0.2500000   0.5000000   1.7308699  )
        45           O   tau(  45) = (   0.0000000   0.5000000   1.4808699  )
        46           O   tau(  46) = (   0.2500000   0.2500000   1.4808699  )
        47           O   tau(  47) = (   0.0000000   0.2497815   2.2374011  )
        48           O   tau(  48) = (   0.2488227   0.5000000   2.2371575  )
        49           O   tau(  49) = (   0.0000000   0.5000000   1.9816223  )
        50           O   tau(  50) = (   0.2499458   0.2499458   1.9818661  )
        51           O   tau(  51) = (   0.5000000   0.7500000   1.7308699  )
        52           O   tau(  52) = (   0.7500000   0.0000000   1.7308699  )
        53           O   tau(  53) = (   0.5000000   0.0000000   1.4808699  )
        54           O   tau(  54) = (   0.7500000   0.7500000   1.4808699  )
        55           O   tau(  55) = (   0.5000000   0.7511773   2.2371575  )
        56           O   tau(  56) = (   0.7502185   0.0000000   2.2374011  )
        57           O   tau(  57) = (   0.5000000   0.0000000   1.9816223  )
        58           O   tau(  58) = (   0.7500542   0.7500542   1.9818661  )
        59           O   tau(  59) = (   0.5000000   0.2500000   1.7308699  )
        60           O   tau(  60) = (   0.7500000   0.5000000   1.7308699  )
        61           O   tau(  61) = (   0.5000000   0.5000000   1.4808699  )
        62           O   tau(  62) = (   0.7500000   0.2500000   1.4808699  )
        63           O   tau(  63) = (   0.5000000   0.2488227   2.2371575  )
        64           O   tau(  64) = (   0.7511773   0.5000000   2.2371575  )
        65           O   tau(  65) = (   0.5000000   0.5000000   1.9828067  )
        66           O   tau(  66) = (   0.7500542   0.2499458   1.9818661  )

   Crystallographic axes

     site n.     atom                  positions (cryst. coord.)
         1           C   tau(   1) = (  0.5000000  0.5000000  0.6097115  )
         2           O   tau(   2) = (  0.5000000  0.5000000  0.6425097  )
         3           Mg  tau(   3) = (  0.0000000  0.7500000  0.3574903  )
         4           Mg  tau(   4) = (  0.2500000  0.0000000  0.3574903  )
         5           Mg  tau(   5) = (  0.0000000  0.0000000  0.4178417  )
         6           Mg  tau(   6) = (  0.2500000  0.7500000  0.4178417  )
         7           Mg  tau(   7) = (  0.0000000  0.7499393  0.4785703  )
         8           Mg  tau(   8) = (  0.2500607  0.0000000  0.4785703  )
         9           Mg  tau(   9) = (  0.0000000  0.0000000  0.5387584  )
        10           Mg  tau(  10) = (  0.2498583  0.7501417  0.5386512  )
        11           Mg  tau(  11) = (  0.0000000  0.2500000  0.3574903  )
        12           Mg  tau(  12) = (  0.2500000  0.5000000  0.3574903  )
        13           Mg  tau(  13) = (  0.0000000  0.5000000  0.4178417  )
        14           Mg  tau(  14) = (  0.2500000  0.2500000  0.4178417  )
        15           Mg  tau(  15) = (  0.0000000  0.2500607  0.4785703  )
        16           Mg  tau(  16) = (  0.2503784  0.5000000  0.4786535  )
        17           Mg  tau(  17) = (  0.0000000  0.5000000  0.5386791  )
        18           Mg  tau(  18) = (  0.2498583  0.2498583  0.5386512  )
        19           Mg  tau(  19) = (  0.5000000  0.7500000  0.3574903  )
        20           Mg  tau(  20) = (  0.7500000  0.0000000  0.3574903  )
        21           Mg  tau(  21) = (  0.5000000  0.0000000  0.4178417  )
        22           Mg  tau(  22) = (  0.7500000  0.7500000  0.4178417  )
        23           Mg  tau(  23) = (  0.5000000  0.7496216  0.4786535  )
        24           Mg  tau(  24) = (  0.7499393  0.0000000  0.4785703  )
        25           Mg  tau(  25) = (  0.5000000  0.0000000  0.5386791  )
        26           Mg  tau(  26) = (  0.7501417  0.7501417  0.5386512  )
        27           Mg  tau(  27) = (  0.5000000  0.2500000  0.3574903  )
        28           Mg  tau(  28) = (  0.7500000  0.5000000  0.3574903  )
        29           Mg  tau(  29) = (  0.5000000  0.5000000  0.4178417  )
        30           Mg  tau(  30) = (  0.7500000  0.2500000  0.4178417  )
        31           Mg  tau(  31) = (  0.5000000  0.2503784  0.4786535  )
        32           Mg  tau(  32) = (  0.7496216  0.5000000  0.4786535  )
        33           Mg  tau(  33) = (  0.5000000  0.5000000  0.5399002  )
        34           Mg  tau(  34) = (  0.7501417  0.2498583  0.5386512  )
        35           O   tau(  35) = (  0.0000000  0.7500000  0.4178417  )
        36           O   tau(  36) = (  0.2500000  0.0000000  0.4178417  )
        37           O   tau(  37) = (  0.0000000  0.0000000  0.3574903  )
        38           O   tau(  38) = (  0.2500000  0.7500000  0.3574903  )
        39           O   tau(  39) = (  0.0000000  0.7502185  0.5401212  )
        40           O   tau(  40) = (  0.2497815  0.0000000  0.5401212  )
        41           O   tau(  41) = (  0.0000000  0.0000000  0.4784036  )
        42           O   tau(  42) = (  0.2499458  0.7500542  0.4784336  )
        43           O   tau(  43) = (  0.0000000  0.2500000  0.4178417  )
        44           O   tau(  44) = (  0.2500000  0.5000000  0.4178417  )
        45           O   tau(  45) = (  0.0000000  0.5000000  0.3574903  )
        46           O   tau(  46) = (  0.2500000  0.2500000  0.3574903  )
        47           O   tau(  47) = (  0.0000000  0.2497815  0.5401212  )
        48           O   tau(  48) = (  0.2488227  0.5000000  0.5400624  )
        49           O   tau(  49) = (  0.0000000  0.5000000  0.4783748  )
        50           O   tau(  50) = (  0.2499458  0.2499458  0.4784336  )
        51           O   tau(  51) = (  0.5000000  0.7500000  0.4178417  )
        52           O   tau(  52) = (  0.7500000  0.0000000  0.4178417  )
        53           O   tau(  53) = (  0.5000000  0.0000000  0.3574903  )
        54           O   tau(  54) = (  0.7500000  0.7500000  0.3574903  )
        55           O   tau(  55) = (  0.5000000  0.7511773  0.5400624  )
        56           O   tau(  56) = (  0.7502185  0.0000000  0.5401212  )
        57           O   tau(  57) = (  0.5000000  0.0000000  0.4783748  )
        58           O   tau(  58) = (  0.7500542  0.7500542  0.4784336  )
        59           O   tau(  59) = (  0.5000000  0.2500000  0.4178417  )
        60           O   tau(  60) = (  0.7500000  0.5000000  0.4178417  )
        61           O   tau(  61) = (  0.5000000  0.5000000  0.3574903  )
        62           O   tau(  62) = (  0.7500000  0.2500000  0.3574903  )
        63           O   tau(  63) = (  0.5000000  0.2488227  0.5400624  )
        64           O   tau(  64) = (  0.7511773  0.5000000  0.5400624  )
        65           O   tau(  65) = (  0.5000000  0.5000000  0.4786607  )
        66           O   tau(  66) = (  0.7500542  0.2499458  0.4784336  )

     number of k points=     5
                       cart. coord. in units 2pi/alat
        k(    1) = (   0.0000000   0.0000000   0.0000000), wk =   0.2222222
        k(    2) = (   0.0000000   0.3333333   0.0000000), wk =   0.4444444
        k(    3) = (   0.3333333   0.0000000   0.0000000), wk =   0.4444444
        k(    4) = (   0.3333333   0.3333333   0.0000000), wk =   0.4444444
        k(    5) = (   0.3333333  -0.3333333   0.0000000), wk =   0.4444444

                       cryst. coord.
        k(    1) = (   0.0000000   0.0000000   0.0000000), wk =   0.2222222
        k(    2) = (   0.0000000   0.3333333   0.0000000), wk =   0.4444444
        k(    3) = (   0.3333333   0.0000000   0.0000000), wk =   0.4444444
        k(    4) = (   0.3333333   0.3333333   0.0000000), wk =   0.4444444
        k(    5) = (   0.3333333  -0.3333333   0.0000000), wk =   0.4444444

     Initial potential from superposition of free atoms

     starting charge     221.3514, renormalised to     266.0000

     negative rho (up, down):  5.230E-02 0.000E+00
     Starting wfcs are  424 randomized atomic wfcs

     Self-consistent Calculation

     iteration #  1     ecut=   600.00 Ry     beta= 0.70
     Davidson diagonalization with overlap

     ethr =  1.00E-02,  avg # of iterations =  3.0

     negative rho (up, down):  6.772E-03 0.000E+00

     total energy              =   -1130.34051933 Ry
     estimated scf accuracy    <       7.63805394 Ry

[...]

     negative rho (up, down):  1.222E-07 0.000E+00

     total energy              =   -1130.44970672 Ry
     estimated scf accuracy    <       0.00000012 Ry

     iteration # 32     ecut=   600.00 Ry     beta= 0.70
     Davidson diagonalization with overlap

     ethr =  4.65E-11,  avg # of iterations =  5.0

     End of self-consistent calculation

          k = 0.0000 0.0000 0.0000 (****** PWs)   bands (ev):

   -26.7166 -19.6085 -19.0869 -18.9283 -18.9283 -18.9213 -18.9145 -18.6212
   -18.5996 -18.5716 -18.5716 -18.5654 -18.5636 -18.5636 -18.5588 -18.5157
   -18.2762 -18.2671 -18.2669 -18.2638 -18.2246 -18.1929 -18.1926 -18.1926
   -18.1919 -18.0862 -18.0862 -18.0586 -18.0560 -18.0560 -18.0496 -17.9332
   -17.7508 -11.5724  -9.1798  -9.1798  -7.3472  -6.8340  -6.8340  -6.7861
    -6.7497  -6.4189  -6.4189  -6.2909  -6.1402  -6.1402  -6.0255  -5.9480
    -5.8360  -5.8360  -5.8319  -5.8199  -5.7185  -5.7185  -5.6916  -5.6904
    -5.6904  -5.6833  -5.2877  -5.2862  -5.2793  -5.2793  -5.2510  -5.2288
    -5.2253  -5.2236  -5.2236  -4.8300  -4.8300  -4.6768  -4.6699  -4.6674
    -4.6674  -4.6011  -4.6011  -4.5991  -4.5707  -4.2717  -4.2717  -4.2619
    -4.1785  -4.1323  -4.1323  -4.0957  -4.0562  -4.0275  -3.9932  -3.9341
    -3.9337  -3.9274  -3.9274  -3.9238  -3.9139  -3.9139  -3.6698  -3.6698
    -3.4140  -3.4140  -3.4115  -3.4104  -3.4074  -3.4031  -3.4031  -3.3814
    -3.2775  -3.2734  -3.2655  -3.2419  -3.2419  -3.1859  -3.1859  -3.1652
    -3.1652  -3.1191  -3.1188  -3.0906  -3.0112  -2.9795  -2.9795  -2.9772
    -2.9737  -2.9422  -2.9422  -2.9087  -2.9087  -2.9039  -2.8665  -2.7678
    -2.7603  -2.7562  -2.7562  -2.4976  -2.4976

     occupation numbers
     1.0000   1.0000   1.0000   1.0000   1.0000   1.0000   1.0000   1.0000
     1.0000   1.0000   1.0000   1.0000   1.0000   1.0000   1.0000   1.0000
     1.0000   1.0000   1.0000   1.0000   1.0000   1.0000   1.0000   1.0000
     1.0000   1.0000   1.0000   1.0000   1.0000   1.0000   1.0000   1.0000
     1.0000   1.0000   1.0000   1.0000   1.0000   1.0000   1.0000   1.0000
     1.0000   1.0000   1.0000   1.0000   1.0000   1.0000   1.0000   1.0000
     1.0000   1.0000   1.0000   1.0000   1.0000   1.0000   1.0000   1.0000
     1.0000   1.0000   1.0000   1.0000   1.0000   1.0000   1.0000   1.0000
     1.0000   1.0000   1.0000   1.0000   1.0000   1.0000   1.0000   1.0000
     1.0000   1.0000   1.0000   1.0000   1.0000   1.0000   1.0000   1.0000
     1.0000   1.0000   1.0000   1.0000   1.0000   1.0000   1.0000   1.0000
     1.0000   1.0000   1.0000   1.0000   1.0000   1.0000   1.0000   1.0000
     1.0000   1.0000   1.0000   1.0000   1.0000   1.0000   1.0000   1.0000
     1.0000   1.0000   1.0000   1.0000   1.0000   1.0000   1.0000   1.0000
     1.0000   1.0000   1.0000   1.0000   1.0000   1.0000   1.0000   1.0000
     1.0000   1.0000   1.0000   1.0000   1.0000   1.0000   1.0000   1.0000
     1.0000   1.0000   1.0000   1.0000   1.0000

[...]

          k = 0.3333-0.3333 0.0000 (****** PWs)   bands (ev):

   -26.7166 -19.4319 -19.1966 -19.1931 -18.9960 -18.9465 -18.7691 -18.7667
   -18.6425 -18.5562 -18.5532 -18.5278 -18.4830 -18.4227 -18.3863 -18.3846
   -18.3599 -18.3159 -18.3145 -18.3136 -18.2712 -18.2181 -18.1876 -18.1610
   -18.1572 -18.1348 -18.1131 -18.1129 -18.0209 -18.0062 -17.9442 -17.9396
   -17.8383 -11.5724  -9.1799  -9.1799  -7.3297  -6.5971  -6.5499  -6.4071
    -6.3194  -6.2677  -6.2676  -6.2536  -6.2496  -6.2276  -6.2245  -6.1547
    -6.0997  -6.0967  -6.0566  -5.9124  -5.8972  -5.8956  -5.8937  -5.8177
    -5.8124  -5.7756  -5.7634  -5.7200  -5.5911  -5.4582  -5.4034  -5.0591
    -5.0491  -4.9890  -4.9614  -4.7624  -4.6705  -4.6520  -4.6259  -4.5838
    -4.5820  -4.3781  -4.3544  -4.3318  -4.3314  -4.3097  -4.1870  -4.1393
    -4.0830  -4.0804  -3.9970  -3.9769  -3.9651  -3.9351  -3.9132  -3.9080
    -3.8302  -3.7983  -3.7558  -3.7538  -3.7273  -3.7105  -3.6701  -3.6585
    -3.6507  -3.6084  -3.5922  -3.5615  -3.5572  -3.5134  -3.5018  -3.5010
    -3.4799  -3.4646  -3.3851  -3.2474  -3.2045  -3.1881  -3.1878  -3.1427
    -3.1220  -3.1214  -3.1080  -3.1019  -3.0668  -3.0613  -3.0502  -3.0474
    -3.0406  -3.0220  -2.9538  -2.9310  -2.8307  -2.8150  -2.8082  -2.7690
    -2.7631  -2.7611  -2.6970  -2.6960  -2.5565

     occupation numbers
     1.0000   1.0000   1.0000   1.0000   1.0000   1.0000   1.0000   1.0000
     1.0000   1.0000   1.0000   1.0000   1.0000   1.0000   1.0000   1.0000
     1.0000   1.0000   1.0000   1.0000   1.0000   1.0000   1.0000   1.0000
     1.0000   1.0000   1.0000   1.0000   1.0000   1.0000   1.0000   1.0000
     1.0000   1.0000   1.0000   1.0000   1.0000   1.0000   1.0000   1.0000
     1.0000   1.0000   1.0000   1.0000   1.0000   1.0000   1.0000   1.0000
     1.0000   1.0000   1.0000   1.0000   1.0000   1.0000   1.0000   1.0000
     1.0000   1.0000   1.0000   1.0000   1.0000   1.0000   1.0000   1.0000
     1.0000   1.0000   1.0000   1.0000   1.0000   1.0000   1.0000   1.0000
     1.0000   1.0000   1.0000   1.0000   1.0000   1.0000   1.0000   1.0000
     1.0000   1.0000   1.0000   1.0000   1.0000   1.0000   1.0000   1.0000
     1.0000   1.0000   1.0000   1.0000   1.0000   1.0000   1.0000   1.0000
     1.0000   1.0000   1.0000   1.0000   1.0000   1.0000   1.0000   1.0000
     1.0000   1.0000   1.0000   1.0000   1.0000   1.0000   1.0000   1.0000
     1.0000   1.0000   1.0000   1.0000   1.0000   1.0000   1.0000   1.0000
     1.0000   1.0000   1.0000   1.0000   1.0000   1.0000   1.0000   1.0000
     1.0000   1.0000   1.0000   1.0000   1.0000

     highest occupied level (ev):    -2.4976

!    total energy              =   -1130.44970740 Ry
     estimated scf accuracy    <       0.00000006 Ry

     The total energy is the sum of the following terms:
     one-electron contribution =  -21520.39137519 Ry
     hartree contribution      =   10855.51192557 Ry
     xc contribution           =    -265.16558296 Ry
     ewald contribution        =    9799.59532518 Ry

     convergence has been achieved in  32 iterations

     Writing all to output data dir ./pwscf.save/

     General routines

     Parallel routines

   This run was terminated on:  13:42:32  12Jun2023

   JOB DONE.